<?xml version="1.0" encoding="utf-8"?>
<VTKFile byte_order="LittleEndian" type="UnstructuredGrid" version="0.1">
   <UnstructuredGrid>
      <Piece NumberOfCells="800" NumberOfPoints="861">
         <Points>
            <DataArray Name="Points" NumberOfComponents="3" format="ascii" type="Float32">
2.0000 0.0000 0.0000
2.0000 0.0250 0.0000
2.0000 0.0500 0.0000
2.0000 0.0750 0.0000
2.0000 0.1000 0.0000
1.9000 0.0000 0.0000
1.9000 0.0250 0.0000
1.9000 0.0500 0.0000
2.0000 0.1250 0.0000
1.9000 0.0750 0.0000
1.9000 0.1000 0.0000
2.0000 0.1500 0.0000
1.9000 0.1250 0.0000
2.0000 0.1750 0.0000
1.9000 0.1500 0.0000
1.8000 0.0000 0.0000
2.0000 0.2000 0.0000
1.9000 0.1750 0.0000
1.8000 0.0250 0.0000
1.8000 0.0500 0.0000
1.8000 0.0750 0.0000
1.8000 0.1000 0.0000
1.9000 0.2000 0.0000
2.0000 0.2250 0.0000
1.8000 0.1250 0.0000
1.9000 0.2250 0.0000
2.0000 0.2500 0.0000
1.8000 0.1500 0.0000
1.8000 0.1750 0.0000
1.9000 0.2500 0.0000
2.0000 0.2750 0.0000
1.8000 0.2000 0.0000
1.9000 0.2750 0.0000
2.0000 0.3000 0.0000
1.7000 0.0000 0.0000
1.7000 0.0250 0.0000
1.8000 0.2250 0.0000
1.7000 0.0500 0.0000
1.7000 0.0750 0.0000
1.9000 0.3000 0.0000
1.7000 0.1000 0.0000
1.8000 0.2500 0.0000
2.0000 0.3250 0.0000
1.7000 0.1250 0.0000
1.7000 0.1500 0.0000
1.9000 0.3250 0.0000
1.8000 0.2750 0.0000
1.7000 0.1750 0.0000
2.0000 0.3500 0.0000
1.7000 0.2000 0.0000
1.8000 0.3000 0.0000
1.9000 0.3500 0.0000
1.7000 0.2250 0.0000
2.0000 0.3750 0.0000
1.8000 0.3250 0.0000
1.9000 0.3750 0.0000
1.7000 0.2500 0.0000
1.6000 0.0000 0.0000
2.0000 0.4000 0.0000
1.6000 0.0250 0.0000
1.8000 0.3500 0.0000
1.6000 0.0500 0.0000
1.7000 0.2750 0.0000
1.6000 0.0750 0.0000
1.6000 0.1000 0.0000
1.9000 0.4000 0.0000
1.6000 0.1250 0.0000
1.7000 0.3000 0.0000
2.0000 0.4250 0.0000
1.8000 0.3750 0.0000
1.6000 0.1500 0.0000
1.9000 0.4250 0.0000
1.6000 0.1750 0.0000
1.7000 0.3250 0.0000
1.8000 0.4000 0.0000
1.6000 0.2000 0.0000
2.0000 0.4500 0.0000
1.6000 0.2250 0.0000
1.9000 0.4500 0.0000
1.7000 0.3500 0.0000
1.8000 0.4250 0.0000
1.6000 0.2500 0.0000
2.0000 0.4750 0.0000
1.7000 0.3750 0.0000
1.9000 0.4750 0.0000
1.6000 0.2750 0.0000
1.8000 0.4500 0.0000
1.7000 0.4000 0.0000
2.0000 0.5000 0.0000
1.5000 0.0000 0.0000
1.6000 0.3000 0.0000
1.5000 0.0250 0.0000
1.5000 0.0500 0.0000
1.5000 0.0750 0.0000
1.9000 0.5000 0.0000
1.5000 0.1000 0.0000
1.5000 0.1250 0.0000
1.6000 0.3250 0.0000
1.8000 0.4750 0.0000
1.7000 0.4250 0.0000
1.5000 0.1500 0.0000
2.0000 0.5250 0.0000
1.5000 0.1750 0.0000
1.6000 0.3500 0.0000
1.9000 0.5250 0.0000
1.5000 0.2000 0.0000
1.8000 0.5000 0.0000
1.7000 0.4500 0.0000
1.5000 0.2250 0.0000
1.6000 0.3750 0.0000
2.0000 0.5500 0.0000
1.9000 0.5500 0.0000
1.5000 0.2500 0.0000
1.8000 0.5250 0.0000
1.7000 0.4750 0.0000
1.6000 0.4000 0.0000
1.5000 0.2750 0.0000
2.0000 0.5750 0.0000
1.7000 0.5000 0.0000
1.5000 0.3000 0.0000
1.6000 0.4250 0.0000
1.9000 0.5750 0.0000
1.8000 0.5500 0.0000
1.5000 0.3250 0.0000
2.0000 0.6000 0.0000
1.4000 0.0000 0.0000
1.4000 0.0250 0.0000
1.4000 0.0500 0.0000
1.6000 0.4500 0.0000
1.7000 0.5250 0.0000
1.4000 0.0750 0.0000
1.4000 0.1000 0.0000
1.9000 0.6000 0.0000
1.8000 0.5750 0.0000
1.5000 0.3500 0.0000
1.4000 0.1250 0.0000
1.4000 0.1500 0.0000
1.6000 0.4750 0.0000
2.0000 0.6250 0.0000
1.5000 0.3750 0.0000
1.4000 0.1750 0.0000
1.7000 0.5500 0.0000
1.4000 0.2000 0.0000
1.8000 0.6000 0.0000
1.9000 0.6250 0.0000
1.5000 0.4000 0.0000
1.6000 0.5000 0.0000
1.4000 0.2250 0.0000
1.7000 0.5750 0.0000
2.0000 0.6500 0.0000
1.4000 0.2500 0.0000
1.5000 0.4250 0.0000
1.8000 0.6250 0.0000
1.9000 0.6500 0.0000
1.4000 0.2750 0.0000
1.6000 0.5250 0.0000
1.7000 0.6000 0.0000
1.4000 0.3000 0.0000
1.5000 0.4500 0.0000
2.0000 0.6750 0.0000
1.8000 0.6500 0.0000
1.6000 0.5500 0.0000
1.4000 0.3250 0.0000
1.9000 0.6750 0.0000
1.5000 0.4750 0.0000
1.7000 0.6250 0.0000
1.4000 0.3500 0.0000
1.3000 0.0000 0.0000
2.0000 0.7000 0.0000
1.3000 0.0250 0.0000
1.6000 0.5750 0.0000
1.3000 0.0500 0.0000
1.3000 0.0750 0.0000
1.8000 0.6750 0.0000
1.3000 0.1000 0.0000
1.5000 0.5000 0.0000
1.9000 0.7000 0.0000
1.4000 0.3750 0.0000
1.3000 0.1250 0.0000
1.7000 0.6500 0.0000
1.3000 0.1500 0.0000
1.4000 0.4000 0.0000
1.6000 0.6000 0.0000
1.3000 0.1750 0.0000
1.5000 0.5250 0.0000
2.0000 0.7250 0.0000
1.3000 0.2000 0.0000
1.8000 0.7000 0.0000
1.9000 0.7250 0.0000
1.4000 0.4250 0.0000
1.3000 0.2250 0.0000
1.7000 0.6750 0.0000
1.6000 0.6250 0.0000
1.5000 0.5500 0.0000
1.3000 0.2500 0.0000
1.4000 0.4500 0.0000
2.0000 0.7500 0.0000
1.3000 0.2750 0.0000
1.8000 0.7250 0.0000
1.9000 0.7500 0.0000
1.7000 0.7000 0.0000
1.3000 0.3000 0.0000
1.5000 0.5750 0.0000
1.6000 0.6500 0.0000
1.4000 0.4750 0.0000
1.3000 0.3250 0.0000
2.0000 0.7750 0.0000
1.8000 0.7500 0.0000
1.4000 0.5000 0.0000
1.5000 0.6000 0.0000
1.9000 0.7750 0.0000
1.3000 0.3500 0.0000
1.7000 0.7250 0.0000
1.6000 0.6750 0.0000
1.3000 0.3750 0.0000
1.4000 0.5250 0.0000
2.0000 0.8000 0.0000
1.2000 0.0000 0.0000
1.8000 0.7750 0.0000
1.5000 0.6250 0.0000
1.2000 0.0250 0.0000
1.2000 0.0500 0.0000
1.2000 0.0750 0.0000
1.3000 0.4000 0.0000
1.9000 0.8000 0.0000
1.2000 0.1000 0.0000
1.6000 0.7000 0.0000
1.7000 0.7500 0.0000
1.2000 0.1250 0.0000
1.4000 0.5500 0.0000
1.2000 0.1500 0.0000
1.3000 0.4250 0.0000
1.2000 0.1750 0.0000
1.5000 0.6500 0.0000
1.8000 0.8000 0.0000
1.2000 0.2000 0.0000
2.0000 0.8250 0.0000
1.6000 0.7250 0.0000
1.9000 0.8250 0.0000
1.2000 0.2250 0.0000
1.4000 0.5750 0.0000
1.7000 0.7750 0.0000
1.3000 0.4500 0.0000
1.2000 0.2500 0.0000
1.5000 0.6750 0.0000
1.3000 0.4750 0.0000
1.2000 0.2750 0.0000
1.4000 0.6000 0.0000
1.8000 0.8250 0.0000
2.0000 0.8500 0.0000
1.6000 0.7500 0.0000
1.7000 0.8000 0.0000
1.2000 0.3000 0.0000
1.9000 0.8500 0.0000
1.3000 0.5000 0.0000
1.5000 0.7000 0.0000
1.2000 0.3250 0.0000
1.4000 0.6250 0.0000
1.6000 0.7750 0.0000
1.2000 0.3500 0.0000
1.8000 0.8500 0.0000
1.3000 0.5250 0.0000
2.0000 0.8750 0.0000
1.7000 0.8250 0.0000
1.5000 0.7250 0.0000
1.9000 0.8750 0.0000
1.2000 0.3750 0.0000
1.4000 0.6500 0.0000
1.3000 0.5500 0.0000
1.2000 0.4000 0.0000
1.6000 0.8000 0.0000
1.8000 0.8750 0.0000
1.1000 0.0000 0.0000
2.0000 0.9000 0.0000
1.1000 0.0250 0.0000
1.5000 0.7500 0.0000
1.1000 0.0500 0.0000
1.7000 0.8500 0.0000
1.4000 0.6750 0.0000
1.1000 0.0750 0.0000
1.9000 0.9000 0.0000
1.1000 0.1000 0.0000
1.3000 0.5750 0.0000
1.2000 0.4250 0.0000
1.1000 0.1250 0.0000
1.1000 0.1500 0.0000
1.6000 0.8250 0.0000
1.1000 0.1750 0.0000
1.2000 0.4500 0.0000
1.3000 0.6000 0.0000
1.8000 0.9000 0.0000
1.4000 0.7000 0.0000
1.1000 0.2000 0.0000
1.5000 0.7750 0.0000
2.0000 0.9250 0.0000
1.7000 0.8750 0.0000
1.1000 0.2250 0.0000
1.2000 0.4750 0.0000
1.9000 0.9250 0.0000
1.1000 0.2500 0.0000
1.3000 0.6250 0.0000
1.6000 0.8500 0.0000
1.4000 0.7250 0.0000
1.1000 0.2750 0.0000
1.5000 0.8000 0.0000
1.2000 0.5000 0.0000
1.8000 0.9250 0.0000
1.7000 0.9000 0.0000
1.1000 0.3000 0.0000
2.0000 0.9500 0.0000
1.3000 0.6500 0.0000
1.9000 0.9500 0.0000
1.2000 0.5250 0.0000
1.1000 0.3250 0.0000
1.4000 0.7500 0.0000
1.6000 0.8750 0.0000
1.5000 0.8250 0.0000
1.1000 0.3500 0.0000
1.2000 0.5500 0.0000
1.8000 0.9500 0.0000
1.3000 0.6750 0.0000
1.7000 0.9250 0.0000
2.0000 0.9750 0.0000
1.1000 0.3750 0.0000
1.9000 0.9750 0.0000
1.4000 0.7750 0.0000
1.1000 0.4000 0.0000
1.6000 0.9000 0.0000
1.2000 0.5750 0.0000
1.5000 0.8500 0.0000
1.3000 0.7000 0.0000
1.8000 0.9750 0.0000
1.1000 0.4250 0.0000
1.7000 0.9500 0.0000
1.4000 0.8000 0.0000
1.0000 0.0000 0.0000
2.0000 1.0000 0.0000
1.2000 0.6000 0.0000
1.0000 0.0250 0.0000
1.0000 0.0500 0.0000
1.0000 0.0750 0.0000
1.9000 1.0000 0.0000
1.0000 0.1000 0.0000
1.1000 0.4500 0.0000
1.5000 0.8750 0.0000
1.3000 0.7250 0.0000
1.0000 0.1250 0.0000
1.6000 0.9250 0.0000
1.0000 0.1500 0.0000
1.2000 0.6250 0.0000
1.0000 0.1750 0.0000
1.1000 0.4750 0.0000
1.8000 1.0000 0.0000
1.0000 0.2000 0.0000
1.4000 0.8250 0.0000
1.7000 0.9750 0.0000
1.0000 0.2250 0.0000
1.3000 0.7500 0.0000
1.1000 0.5000 0.0000
1.5000 0.9000 0.0000
1.2000 0.6500 0.0000
1.6000 0.9500 0.0000
1.0000 0.2500 0.0000
1.0000 0.2750 0.0000
1.4000 0.8500 0.0000
1.1000 0.5250 0.0000
1.7000 1.0000 0.0000
1.0000 0.3000 0.0000
1.3000 0.7750 0.0000
1.2000 0.6750 0.0000
1.0000 0.3250 0.0000
1.5000 0.9250 0.0000
1.6000 0.9750 0.0000
1.1000 0.5500 0.0000
1.0000 0.3500 0.0000
1.4000 0.8750 0.0000
1.2000 0.7000 0.0000
1.3000 0.8000 0.0000
1.1000 0.5750 0.0000
1.0000 0.3750 0.0000
1.5000 0.9500 0.0000
1.6000 1.0000 0.0000
1.0000 0.4000 0.0000
1.2000 0.7250 0.0000
1.1000 0.6000 0.0000
1.4000 0.9000 0.0000
1.3000 0.8250 0.0000
1.0000 0.4250 0.0000
1.1000 0.6250 0.0000
1.5000 0.9750 0.0000
1.2000 0.7500 0.0000
1.0000 0.4500 0.0000
0.9000 0.0000 0.0000
0.9000 0.0250 0.0000
1.3000 0.8500 0.0000
0.9000 0.0500 0.0000
0.9000 0.0750 0.0000
1.4000 0.9250 0.0000
0.9000 0.1000 0.0000
0.9000 0.1250 0.0000
1.0000 0.4750 0.0000
1.1000 0.6500 0.0000
0.9000 0.1500 0.0000
1.2000 0.7750 0.0000
0.9000 0.1750 0.0000
1.5000 1.0000 0.0000
1.0000 0.5000 0.0000
0.9000 0.2000 0.0000
1.3000 0.8750 0.0000
0.9000 0.2250 0.0000
1.4000 0.9500 0.0000
1.1000 0.6750 0.0000
0.9000 0.2500 0.0000
1.0000 0.5250 0.0000
1.2000 0.8000 0.0000
0.9000 0.2750 0.0000
0.9000 0.3000 0.0000
1.3000 0.9000 0.0000
1.1000 0.7000 0.0000
1.0000 0.5500 0.0000
1.4000 0.9750 0.0000
0.9000 0.3250 0.0000
1.2000 0.8250 0.0000
1.0000 0.5750 0.0000
0.9000 0.3500 0.0000
1.1000 0.7250 0.0000
1.3000 0.9250 0.0000
0.9000 0.3750 0.0000
1.0000 0.6000 0.0000
1.4000 1.0000 0.0000
1.2000 0.8500 0.0000
0.9000 0.4000 0.0000
1.1000 0.7500 0.0000
0.9000 0.4250 0.0000
1.0000 0.6250 0.0000
1.3000 0.9500 0.0000
1.2000 0.8750 0.0000
1.1000 0.7750 0.0000
0.9000 0.4500 0.0000
1.0000 0.6500 0.0000
0.9000 0.4750 0.0000
0.8000 0.0000 0.0000
0.8000 0.0250 0.0000
1.3000 0.9750 0.0000
0.8000 0.0500 0.0000
0.8000 0.0750 0.0000
0.8000 0.1000 0.0000
1.2000 0.9000 0.0000
1.1000 0.8000 0.0000
0.8000 0.1250 0.0000
1.0000 0.6750 0.0000
0.9000 0.5000 0.0000
0.8000 0.1500 0.0000
0.8000 0.1750 0.0000
0.8000 0.2000 0.0000
0.9000 0.5250 0.0000
1.3000 1.0000 0.0000
1.0000 0.7000 0.0000
0.8000 0.2250 0.0000
1.1000 0.8250 0.0000
1.2000 0.9250 0.0000
0.8000 0.2500 0.0000
0.9000 0.5500 0.0000
0.8000 0.2750 0.0000
1.0000 0.7250 0.0000
0.8000 0.3000 0.0000
1.1000 0.8500 0.0000
0.9000 0.5750 0.0000
1.2000 0.9500 0.0000
0.8000 0.3250 0.0000
1.0000 0.7500 0.0000
0.8000 0.3500 0.0000
0.9000 0.6000 0.0000
1.1000 0.8750 0.0000
0.8000 0.3750 0.0000
1.2000 0.9750 0.0000
0.8000 0.4000 0.0000
1.0000 0.7750 0.0000
0.9000 0.6250 0.0000
1.1000 0.9000 0.0000
0.8000 0.4250 0.0000
0.9000 0.6500 0.0000
1.0000 0.8000 0.0000
1.2000 1.0000 0.0000
0.8000 0.4500 0.0000
0.8000 0.4750 0.0000
0.9000 0.6750 0.0000
1.1000 0.9250 0.0000
1.0000 0.8250 0.0000
0.8000 0.5000 0.0000
0.7000 0.0000 0.0000
0.7000 0.0250 0.0000
0.7000 0.0500 0.0000
0.7000 0.0750 0.0000
0.7000 0.1000 0.0000
0.9000 0.7000 0.0000
0.7000 0.1250 0.0000
0.7000 0.1500 0.0000
1.1000 0.9500 0.0000
0.8000 0.5250 0.0000
0.7000 0.1750 0.0000
1.0000 0.8500 0.0000
0.7000 0.2000 0.0000
0.9000 0.7250 0.0000
0.7000 0.2250 0.0000
0.8000 0.5500 0.0000
0.7000 0.2500 0.0000
1.1000 0.9750 0.0000
1.0000 0.8750 0.0000
0.7000 0.2750 0.0000
0.8000 0.5750 0.0000
0.9000 0.7500 0.0000
0.7000 0.3000 0.0000
0.7000 0.3250 0.0000
0.8000 0.6000 0.0000
1.1000 1.0000 0.0000
1.0000 0.9000 0.0000
0.9000 0.7750 0.0000
0.7000 0.3500 0.0000
0.8000 0.6250 0.0000
0.7000 0.3750 0.0000
0.9000 0.8000 0.0000
0.7000 0.4000 0.0000
1.0000 0.9250 0.0000
0.8000 0.6500 0.0000
0.7000 0.4250 0.0000
0.9000 0.8250 0.0000
0.7000 0.4500 0.0000
0.8000 0.6750 0.0000
1.0000 0.9500 0.0000
0.7000 0.4750 0.0000
0.8000 0.7000 0.0000
0.9000 0.8500 0.0000
0.7000 0.5000 0.0000
1.0000 0.9750 0.0000
0.6000 0.0000 0.0000
0.6000 0.0250 0.0000
0.6000 0.0500 0.0000
0.8000 0.7250 0.0000
0.6000 0.0750 0.0000
0.7000 0.5250 0.0000
0.6000 0.1000 0.0000
0.6000 0.1250 0.0000
0.9000 0.8750 0.0000
0.6000 0.1500 0.0000
0.6000 0.1750 0.0000
0.7000 0.5500 0.0000
1.0000 1.0000 0.0000
0.6000 0.2000 0.0000
0.8000 0.7500 0.0000
0.6000 0.2250 0.0000
0.9000 0.9000 0.0000
0.7000 0.5750 0.0000
0.6000 0.2500 0.0000
0.6000 0.2750 0.0000
0.8000 0.7750 0.0000
0.7000 0.6000 0.0000
0.6000 0.3000 0.0000
0.6000 0.3250 0.0000
0.9000 0.9250 0.0000
0.8000 0.8000 0.0000
0.7000 0.6250 0.0000
0.6000 0.3500 0.0000
0.6000 0.3750 0.0000
0.7000 0.6500 0.0000
0.9000 0.9500 0.0000
0.6000 0.4000 0.0000
0.8000 0.8250 0.0000
0.6000 0.4250 0.0000
0.7000 0.6750 0.0000
0.9000 0.9750 0.0000
0.8000 0.8500 0.0000
0.6000 0.4500 0.0000
0.7000 0.7000 0.0000
0.6000 0.4750 0.0000
0.8000 0.8750 0.0000
0.6000 0.5000 0.0000
0.9000 1.0000 0.0000
0.7000 0.7250 0.0000
0.6000 0.5250 0.0000
0.5000 0.0000 0.0000
0.8000 0.9000 0.0000
0.5000 0.0250 0.0000
0.5000 0.0500 0.0000
0.7000 0.7500 0.0000
0.5000 0.0750 0.0000
0.5000 0.1000 0.0000
0.6000 0.5500 0.0000
0.5000 0.1250 0.0000
0.5000 0.1500 0.0000
0.5000 0.1750 0.0000
0.5000 0.2000 0.0000
0.6000 0.5750 0.0000
0.7000 0.7750 0.0000
0.8000 0.9250 0.0000
0.5000 0.2250 0.0000
0.5000 0.2500 0.0000
0.6000 0.6000 0.0000
0.5000 0.2750 0.0000
0.7000 0.8000 0.0000
0.5000 0.3000 0.0000
0.8000 0.9500 0.0000
0.6000 0.6250 0.0000
0.5000 0.3250 0.0000
0.7000 0.8250 0.0000
0.5000 0.3500 0.0000
0.6000 0.6500 0.0000
0.5000 0.3750 0.0000
0.8000 0.9750 0.0000
0.5000 0.4000 0.0000
0.7000 0.8500 0.0000
0.6000 0.6750 0.0000
0.5000 0.4250 0.0000
0.8000 1.0000 0.0000
0.6000 0.7000 0.0000
0.5000 0.4500 0.0000
0.7000 0.8750 0.0000
0.5000 0.4750 0.0000
0.6000 0.7250 0.0000
0.5000 0.5000 0.0000
0.7000 0.9000 0.0000
0.6000 0.7500 0.0000
0.5000 0.5250 0.0000
0.7000 0.9250 0.0000
0.5000 0.5500 0.0000
0.4000 0.0000 0.0000
0.4000 0.0250 0.0000
0.6000 0.7750 0.0000
0.4000 0.0500 0.0000
0.4000 0.0750 0.0000
0.4000 0.1000 0.0000
0.4000 0.1250 0.0000
0.5000 0.5750 0.0000
0.4000 0.1500 0.0000
0.4000 0.1750 0.0000
0.7000 0.9500 0.0000
0.4000 0.2000 0.0000
0.6000 0.8000 0.0000
0.5000 0.6000 0.0000
0.4000 0.2250 0.0000
0.4000 0.2500 0.0000
0.4000 0.2750 0.0000
0.6000 0.8250 0.0000
0.7000 0.9750 0.0000
0.5000 0.6250 0.0000
0.4000 0.3000 0.0000
0.4000 0.3250 0.0000
0.5000 0.6500 0.0000
0.6000 0.8500 0.0000
0.4000 0.3500 0.0000
0.7000 1.0000 0.0000
0.4000 0.3750 0.0000
0.5000 0.6750 0.0000
0.4000 0.4000 0.0000
0.6000 0.8750 0.0000
0.5000 0.7000 0.0000
0.4000 0.4250 0.0000
0.4000 0.4500 0.0000
0.6000 0.9000 0.0000
0.5000 0.7250 0.0000
0.4000 0.4750 0.0000
0.4000 0.5000 0.0000
0.5000 0.7500 0.0000
0.6000 0.9250 0.0000
0.4000 0.5250 0.0000
0.5000 0.7750 0.0000
0.4000 0.5500 0.0000
0.6000 0.9500 0.0000
0.3000 0.0000 0.0000
0.5000 0.8000 0.0000
0.4000 0.5750 0.0000
0.3000 0.0250 0.0000
0.3000 0.0500 0.0000
0.3000 0.0750 0.0000
0.3000 0.1000 0.0000
0.3000 0.1250 0.0000
0.6000 0.9750 0.0000
0.3000 0.1500 0.0000
0.4000 0.6000 0.0000
0.3000 0.1750 0.0000
0.3000 0.2000 0.0000
0.5000 0.8250 0.0000
0.3000 0.2250 0.0000
0.4000 0.6250 0.0000
0.3000 0.2500 0.0000
0.6000 1.0000 0.0000
0.3000 0.2750 0.0000
0.5000 0.8500 0.0000
0.3000 0.3000 0.0000
0.4000 0.6500 0.0000
0.3000 0.3250 0.0000
0.3000 0.3500 0.0000
0.4000 0.6750 0.0000
0.5000 0.8750 0.0000
0.3000 0.3750 0.0000
0.3000 0.4000 0.0000
0.4000 0.7000 0.0000
0.5000 0.9000 0.0000
0.3000 0.4250 0.0000
0.4000 0.7250 0.0000
0.3000 0.4500 0.0000
0.5000 0.9250 0.0000
0.3000 0.4750 0.0000
0.4000 0.7500 0.0000
0.3000 0.5000 0.0000
0.5000 0.9500 0.0000
0.4000 0.7750 0.0000
0.3000 0.5250 0.0000
0.3000 0.5500 0.0000
0.4000 0.8000 0.0000
0.5000 0.9750 0.0000
0.3000 0.5750 0.0000
0.2000 0.0000 0.0000
0.2000 0.0250 0.0000
0.4000 0.8250 0.0000
0.2000 0.0500 0.0000
0.2000 0.0750 0.0000
0.5000 1.0000 0.0000
0.2000 0.1000 0.0000
0.3000 0.6000 0.0000
0.2000 0.1250 0.0000
0.2000 0.1500 0.0000
0.2000 0.1750 0.0000
0.2000 0.2000 0.0000
0.3000 0.6250 0.0000
0.4000 0.8500 0.0000
0.2000 0.2250 0.0000
0.2000 0.2500 0.0000
0.3000 0.6500 0.0000
0.2000 0.2750 0.0000
0.4000 0.8750 0.0000
0.2000 0.3000 0.0000
0.3000 0.6750 0.0000
0.2000 0.3250 0.0000
0.2000 0.3500 0.0000
0.4000 0.9000 0.0000
0.3000 0.7000 0.0000
0.2000 0.3750 0.0000
0.2000 0.4000 0.0000
0.3000 0.7250 0.0000
0.4000 0.9250 0.0000
0.2000 0.4250 0.0000
0.2000 0.4500 0.0000
0.3000 0.7500 0.0000
0.4000 0.9500 0.0000
0.2000 0.4750 0.0000
0.2000 0.5000 0.0000
0.3000 0.7750 0.0000
0.4000 0.9750 0.0000
0.2000 0.5250 0.0000
0.3000 0.8000 0.0000
0.2000 0.5500 0.0000
0.4000 1.0000 0.0000
0.3000 0.8250 0.0000
0.2000 0.5750 0.0000
0.2000 0.6000 0.0000
0.1000 0.0000 0.0000
0.1000 0.0250 0.0000
0.3000 0.8500 0.0000
0.1000 0.0500 0.0000
0.1000 0.0750 0.0000
0.1000 0.1000 0.0000
0.1000 0.1250 0.0000
0.2000 0.6250 0.0000
0.1000 0.1500 0.0000
0.1000 0.1750 0.0000
0.1000 0.2000 0.0000
0.3000 0.8750 0.0000
0.1000 0.2250 0.0000
0.2000 0.6500 0.0000
0.1000 0.2500 0.0000
0.1000 0.2750 0.0000
0.2000 0.6750 0.0000
0.1000 0.3000 0.0000
0.3000 0.9000 0.0000
0.1000 0.3250 0.0000
0.2000 0.7000 0.0000
0.1000 0.3500 0.0000
0.3000 0.9250 0.0000
0.1000 0.3750 0.0000
0.2000 0.7250 0.0000
0.1000 0.4000 0.0000
0.1000 0.4250 0.0000
0.3000 0.9500 0.0000
0.2000 0.7500 0.0000
0.1000 0.4500 0.0000
0.1000 0.4750 0.0000
0.3000 0.9750 0.0000
0.2000 0.7750 0.0000
0.1000 0.5000 0.0000
0.2000 0.8000 0.0000
0.1000 0.5250 0.0000
0.3000 1.0000 0.0000
0.1000 0.5500 0.0000
0.2000 0.8250 0.0000
0.1000 0.5750 0.0000
0.2000 0.8500 0.0000
0.1000 0.6000 0.0000
0.0000 0.0000 0.0000
0.1000 0.6250 0.0000
0.0000 0.0250 0.0000
0.0000 0.0500 0.0000
0.0000 0.0750 0.0000
0.2000 0.8750 0.0000
0.0000 0.1000 0.0000
0.0000 0.1250 0.0000
0.0000 0.1500 0.0000
0.0000 0.1750 0.0000
0.1000 0.6500 0.0000
0.0000 0.2000 0.0000
0.2000 0.9000 0.0000
0.0000 0.2250 0.0000
0.0000 0.2500 0.0000
0.1000 0.6750 0.0000
0.0000 0.2750 0.0000
0.0000 0.3000 0.0000
0.2000 0.9250 0.0000
0.1000 0.7000 0.0000
0.0000 0.3250 0.0000
0.0000 0.3500 0.0000
0.1000 0.7250 0.0000
0.0000 0.3750 0.0000
0.2000 0.9500 0.0000
0.0000 0.4000 0.0000
0.1000 0.7500 0.0000
0.0000 0.4250 0.0000
0.2000 0.9750 0.0000
0.0000 0.4500 0.0000
0.1000 0.7750 0.0000
0.0000 0.4750 0.0000
0.2000 1.0000 0.0000
0.0000 0.5000 0.0000
0.1000 0.8000 0.0000
0.0000 0.5250 0.0000
0.1000 0.8250 0.0000
0.0000 0.5500 0.0000
0.0000 0.5750 0.0000
0.1000 0.8500 0.0000
0.0000 0.6000 0.0000
0.1000 0.8750 0.0000
0.0000 0.6250 0.0000
0.1000 0.9000 0.0000
0.0000 0.6500 0.0000
0.0000 0.6750 0.0000
0.1000 0.9250 0.0000
0.0000 0.7000 0.0000
0.1000 0.9500 0.0000
0.0000 0.7250 0.0000
0.1000 0.9750 0.0000
0.0000 0.7500 0.0000
0.0000 0.7750 0.0000
0.1000 1.0000 0.0000
0.0000 0.8000 0.0000
0.0000 0.8250 0.0000
0.0000 0.8500 0.0000
0.0000 0.8750 0.0000
0.0000 0.9000 0.0000
0.0000 0.9250 0.0000
0.0000 0.9500 0.0000
0.0000 0.9750 0.0000
0.0000 1.0000 0.0000</DataArray>
         </Points>
         <Cells>
            <DataArray Name="connectivity" format="ascii" type="Int32">
 756 757 800 798
 712 713 757 756
 668 671 713 712
 625 626 671 668
 580 582 626 625
 535 536 582 580
 490 491 536 535
 441 442 491 490
 392 393 442 441
 335 338 393 392
 272 274 338 335
 217 220 274 272
 167 169 220 217
 125 126 169 167
 89 91 126 125
 57 59 91 89
 34 35 59 57
 15 18 35 34
 5 6 18 15
 0 1 6 5
 757 759 801 800
 713 715 759 757
 671 672 715 713
 626 628 672 671
 582 583 628 626
 536 537 583 582
 491 492 537 536
 442 444 492 491
 393 395 444 442
 338 339 395 393
 274 276 339 338
 220 221 276 274
 169 171 221 220
 126 127 171 169
 91 92 127 126
 59 61 92 91
 35 37 61 59
 18 19 37 35
 6 7 19 18
 1 2 7 6
 759 760 802 801
 715 716 760 759
 672 673 716 715
 628 629 673 672
 583 585 629 628
 537 539 585 583
 492 493 539 537
 444 445 493 492
 395 396 445 444
 339 340 396 395
 276 279 340 339
 221 222 279 276
 171 172 222 221
 127 130 172 171
 92 93 130 127
 61 63 93 92
 37 38 63 61
 19 20 38 37
 7 9 20 19
 2 3 9 7
 760 761 804 802
 716 718 761 760
 673 674 718 716
 629 630 674 673
 585 586 630 629
 539 541 586 585
 493 494 541 539
 445 446 494 493
 396 398 446 445
 340 342 398 396
 279 281 342 340
 222 225 281 279
 172 174 225 222
 130 131 174 172
 93 95 131 130
 63 64 95 93
 38 40 64 63
 20 21 40 38
 9 10 21 20
 3 4 10 9
 761 762 805 804
 718 720 762 761
 674 675 720 718
 630 631 675 674
 586 588 631 630
 541 542 588 586
 494 496 542 541
 446 449 496 494
 398 399 449 446
 342 346 399 398
 281 284 346 342
 225 228 284 281
 174 178 228 225
 131 135 178 174
 95 96 135 131
 64 66 96 95
 40 43 66 64
 21 24 43 40
 10 12 24 21
 4 8 12 10
 762 764 806 805
 720 721 764 762
 675 677 721 720
 631 633 677 675
 588 589 633 631
 542 544 589 588
 496 497 544 542
 449 452 497 496
 399 402 452 449
 346 348 402 399
 284 285 348 346
 228 230 285 284
 178 180 230 228
 135 136 180 178
 96 100 136 135
 66 70 100 96
 43 44 70 66
 24 27 44 43
 12 14 27 24
 8 11 14 12
 764 765 807 806
 721 722 765 764
 677 679 722 721
 633 634 679 677
 589 590 634 633
 544 545 590 589
 497 500 545 544
 452 453 500 497
 402 404 453 452
 348 350 404 402
 285 287 350 348
 230 232 287 285
 180 183 232 230
 136 140 183 180
 100 102 140 136
 70 72 102 100
 44 47 72 70
 27 28 47 44
 14 17 28 27
 11 13 17 14
 765 766 809 807
 722 723 766 765
 679 680 723 722
 634 636 680 679
 590 591 636 634
 545 548 591 590
 500 502 548 545
 453 454 502 500
 404 407 454 453
 350 353 407 404
 287 292 353 350
 232 235 292 287
 183 186 235 232
 140 142 186 183
 102 105 142 140
 72 75 105 102
 47 49 75 72
 28 31 49 47
 17 22 31 28
 13 16 22 17
 766 768 811 809
 723 726 768 766
 680 682 726 723
 636 639 682 680
 591 595 639 636
 548 550 595 591
 502 504 550 548
 454 458 504 502
 407 409 458 454
 353 356 409 407
 292 296 356 353
 235 239 296 292
 186 190 239 235
 142 147 190 186
 105 108 147 142
 75 77 108 105
 49 52 77 75
 31 36 52 49
 22 25 36 31
 16 23 25 22
 768 770 812 811
 726 727 770 768
 682 684 727 726
 639 640 684 682
 595 596 640 639
 550 553 596 595
 504 506 553 550
 458 461 506 504
 409 412 461 458
 356 362 412 409
 296 299 362 356
 239 243 299 296
 190 194 243 239
 147 150 194 190
 108 112 150 147
 77 81 112 108
 52 56 81 77
 36 41 56 52
 25 29 41 36
 23 26 29 25
 770 771 814 812
 727 729 771 770
 684 686 729 727
 640 641 686 684
 596 598 641 640
 553 554 598 596
 506 509 554 553
 461 463 509 506
 412 415 463 461
 362 363 415 412
 299 303 363 362
 243 246 303 299
 194 197 246 243
 150 154 197 194
 112 116 154 150
 81 85 116 112
 56 62 85 81
 41 46 62 56
 29 32 46 41
 26 30 32 29
 771 773 815 814
 729 731 773 771
 686 688 731 729
 641 645 688 686
 598 600 645 641
 554 557 600 598
 509 512 557 554
 463 465 512 509
 415 416 465 463
 363 367 416 415
 303 308 367 363
 246 252 308 303
 197 201 252 246
 154 157 201 197
 116 119 157 154
 85 90 119 116
 62 67 90 85
 46 50 67 62
 32 39 50 46
 30 33 39 32
 773 775 818 815
 731 733 775 773
 688 690 733 731
 645 646 690 688
 600 603 646 645
 557 558 603 600
 512 513 558 557
 465 469 513 512
 416 421 469 465
 367 370 421 416
 308 313 370 367
 252 256 313 308
 201 205 256 252
 157 162 205 201
 119 123 162 157
 90 97 123 119
 67 73 97 90
 50 54 73 67
 39 45 54 50
 33 42 45 39
 775 777 819 818
 733 734 777 775
 690 691 734 733
 646 649 691 690
 603 605 649 646
 558 562 605 603
 513 518 562 558
 469 471 518 513
 421 424 471 469
 370 374 424 421
 313 317 374 370
 256 259 317 313
 205 211 259 256
 162 166 211 205
 123 134 166 162
 97 103 134 123
 73 79 103 97
 54 60 79 73
 45 51 60 54
 42 48 51 45
 777 779 821 819
 734 737 779 777
 691 694 737 734
 649 651 694 691
 605 607 651 649
 562 563 607 605
 518 520 563 562
 471 474 520 518
 424 427 474 471
 374 379 427 424
 317 323 379 374
 259 266 323 317
 211 214 266 259
 166 177 214 211
 134 139 177 166
 103 109 139 134
 79 83 109 103
 60 69 83 79
 51 55 69 60
 48 53 55 51
 779 781 823 821
 737 738 781 779
 694 695 738 737
 651 653 695 694
 607 609 653 651
 563 566 609 607
 520 522 566 563
 474 476 522 520
 427 431 476 474
 379 382 431 427
 323 326 382 379
 266 269 326 323
 214 223 269 266
 177 181 223 214
 139 145 181 177
 109 115 145 139
 83 87 115 109
 69 74 87 83
 55 65 74 69
 53 58 65 55
 781 782 825 823
 738 741 782 781
 695 698 741 738
 653 656 698 695
 609 612 656 653
 566 568 612 609
 522 525 568 566
 476 480 525 522
 431 433 480 476
 382 387 433 431
 326 332 387 382
 269 283 332 326
 223 231 283 269
 181 189 231 223
 145 151 189 181
 115 120 151 145
 87 99 120 115
 74 80 99 87
 65 71 80 74
 58 68 71 65
 782 785 827 825
 741 742 785 782
 698 700 742 741
 656 657 700 698
 612 615 657 656
 568 572 615 612
 525 527 572 568
 480 484 527 525
 433 438 484 480
 387 391 438 433
 332 343 391 387
 283 288 343 332
 231 242 288 283
 189 195 242 231
 151 158 195 189
 120 128 158 151
 99 107 128 120
 80 86 107 99
 71 78 86 80
 68 76 78 71
 785 786 829 827
 742 745 786 785
 700 702 745 742
 657 660 702 700
 615 617 660 657
 572 574 617 615
 527 530 574 572
 484 485 530 527
 438 440 485 484
 391 400 440 438
 343 351 400 391
 288 297 351 343
 242 245 297 288
 195 204 245 242
 158 164 204 195
 128 137 164 158
 107 114 137 128
 86 98 114 107
 78 84 98 86
 76 82 84 78
 786 789 831 829
 745 746 789 786
 702 704 746 745
 660 661 704 702
 617 619 661 660
 574 576 619 617
 530 533 576 574
 485 489 533 530
 440 451 489 485
 400 406 451 440
 351 358 406 400
 297 305 358 351
 245 254 305 297
 204 208 254 245
 164 175 208 204
 137 146 175 164
 114 118 146 137
 98 106 118 114
 84 94 106 98
 82 88 94 84
 789 791 833 831
 746 749 791 789
 704 707 749 746
 661 664 707 704
 619 622 664 661
 576 579 622 619
 533 540 579 576
 489 499 540 533
 451 455 499 489
 406 413 455 451
 358 365 413 406
 305 312 365 358
 254 261 312 305
 208 215 261 254
 175 184 215 208
 146 155 184 175
 118 129 155 146
 106 113 129 118
 94 104 113 106
 88 101 104 94
 791 793 835 833
 749 751 793 791
 707 708 751 749
 664 666 708 707
 622 624 666 664
 579 587 624 622
 540 546 587 579
 499 505 546 540
 455 462 505 499
 413 419 462 455
 365 373 419 413
 312 318 373 365
 261 268 318 312
 215 229 268 261
 184 193 229 215
 155 161 193 184
 129 141 161 155
 113 122 141 129
 104 111 122 113
 101 110 111 104
 793 795 836 835
 751 754 795 793
 708 711 754 751
 666 670 711 708
 624 632 670 666
 587 592 632 624
 546 552 592 587
 505 510 552 546
 462 467 510 505
 419 423 467 462
 373 378 423 419
 318 328 378 373
 268 282 328 318
 229 240 282 268
 193 202 240 229
 161 170 202 193
 141 148 170 161
 122 133 148 141
 111 121 133 122
 110 117 121 111
 795 797 838 836
 754 755 797 795
 711 719 755 754
 670 678 719 711
 632 638 678 670
 592 597 638 632
 552 556 597 592
 510 514 556 552
 467 472 514 510
 423 428 472 467
 378 384 428 423
 328 337 384 378
 282 289 337 328
 240 247 289 282
 202 209 247 240
 170 182 209 202
 148 156 182 170
 133 143 156 148
 121 132 143 133
 117 124 132 121
 797 799 840 838
 755 763 799 797
 719 724 763 755
 678 683 724 719
 638 644 683 678
 597 602 644 638
 556 561 602 597
 514 519 561 556
 472 478 519 514
 428 434 478 472
 384 388 434 428
 337 349 388 384
 289 300 349 337
 247 257 300 289
 209 219 257 247
 182 192 219 209
 156 165 192 182
 143 152 165 156
 132 144 152 143
 124 138 144 132
 799 808 842 840
 763 769 808 799
 724 728 769 763
 683 689 728 724
 644 647 689 683
 602 606 647 644
 561 564 606 602
 519 524 564 561
 478 481 524 519
 434 439 481 478
 388 401 439 434
 349 360 401 388
 300 310 360 349
 257 267 310 300
 219 233 267 257
 192 203 233 219
 165 179 203 192
 152 160 179 165
 144 153 160 152
 138 149 153 144
 808 813 843 842
 769 772 813 808
 728 732 772 769
 689 692 732 728
 647 652 692 689
 606 611 652 647
 564 569 611 606
 524 528 569 564
 481 486 528 524
 439 450 486 481
 401 411 450 439
 360 369 411 401
 310 320 369 360
 267 278 320 310
 233 244 278 267
 203 213 244 233
 179 191 213 203
 160 173 191 179
 153 163 173 160
 149 159 163 153
 813 817 845 843
 772 776 817 813
 732 736 776 772
 692 696 736 732
 652 655 696 692
 611 614 655 652
 569 573 614 611
 528 531 573 569
 486 495 531 528
 450 457 495 486
 411 418 457 450
 369 376 418 411
 320 330 376 369
 278 291 330 320
 244 255 291 278
 213 226 255 244
 191 200 226 213
 173 187 200 191
 163 176 187 173
 159 168 176 163
 817 820 847 845
 776 780 820 817
 736 739 780 776
 696 699 739 736
 655 659 699 696
 614 618 659 655
 573 578 618 614
 531 538 578 573
 495 503 538 531
 457 464 503 495
 418 425 464 457
 376 383 425 418
 330 345 383 376
 291 302 345 330
 255 264 302 291
 226 237 264 255
 200 212 237 226
 187 198 212 200
 176 188 198 187
 168 185 188 176
 820 824 849 847
 780 784 824 820
 739 743 784 780
 699 703 743 739
 659 662 703 699
 618 621 662 659
 578 584 621 618
 538 549 584 578
 503 511 549 538
 464 470 511 503
 425 432 470 464
 383 390 432 425
 345 357 390 383
 302 314 357 345
 264 275 314 302
 237 250 275 264
 212 227 250 237
 198 207 227 212
 188 199 207 198
 185 196 199 188
 824 828 850 849
 784 788 828 824
 743 747 788 784
 703 706 747 743
 662 665 706 703
 621 627 665 662
 584 593 627 621
 549 555 593 584
 511 517 555 549
 470 477 517 511
 432 437 477 470
 390 403 437 432
 357 368 403 390
 314 325 368 357
 275 293 325 314
 250 258 293 275
 227 241 258 250
 207 218 241 227
 199 210 218 207
 196 206 210 199
 828 832 852 850
 788 790 832 828
 747 750 790 788
 706 709 750 747
 665 669 709 706
 627 637 669 665
 593 599 637 627
 555 560 599 593
 517 521 560 555
 477 482 521 517
 437 448 482 477
 403 414 448 437
 368 377 414 403
 325 334 377 368
 293 304 334 325
 258 270 304 293
 241 251 270 258
 218 234 251 241
 210 224 234 218
 206 216 224 210
 832 834 853 852
 790 794 834 832
 750 753 794 790
 709 714 753 750
 669 681 714 709
 637 642 681 669
 599 604 642 637
 560 567 604 599
 521 526 567 560
 482 488 526 521
 448 459 488 482
 414 422 459 448
 377 386 422 414
 334 354 386 377
 304 316 354 334
 270 286 316 304
 251 263 286 270
 234 248 263 251
 224 238 248 234
 216 236 238 224
 834 837 854 853
 794 796 837 834
 753 758 796 794
 714 725 758 753
 681 687 725 714
 642 648 687 681
 604 610 648 642
 567 571 610 604
 526 532 571 567
 488 501 532 526
 459 466 501 488
 422 430 466 459
 386 394 430 422
 354 364 394 386
 316 329 364 354
 286 301 329 316
 263 277 301 286
 248 260 277 263
 238 253 260 248
 236 249 253 238
 837 839 855 854
 796 803 839 837
 758 767 803 796
 725 730 767 758
 687 693 730 725
 648 654 693 687
 610 616 654 648
 571 575 616 610
 532 543 575 571
 501 508 543 532
 466 473 508 501
 430 436 473 466
 394 408 436 430
 364 375 408 394
 329 344 375 364
 301 315 344 329
 277 295 315 301
 260 271 295 277
 253 265 271 260
 249 262 265 253
 839 841 856 855
 803 810 841 839
 767 774 810 803
 730 735 774 767
 693 697 735 730
 654 658 697 693
 616 620 658 654
 575 581 620 616
 543 551 581 575
 508 516 551 543
 473 479 516 508
 436 447 479 473
 408 417 447 436
 375 385 417 408
 344 359 385 375
 315 327 359 344
 295 307 327 315
 271 290 307 295
 265 280 290 271
 262 273 280 265
 841 844 857 856
 810 816 844 841
 774 778 816 810
 735 740 778 774
 697 701 740 735
 658 663 701 697
 620 623 663 658
 581 594 623 620
 551 559 594 581
 516 523 559 551
 479 487 523 516
 447 460 487 479
 417 426 460 447
 385 397 426 417
 359 371 397 385
 327 347 371 359
 307 321 347 327
 290 306 321 307
 280 298 306 290
 273 294 298 280
 844 846 858 857
 816 822 846 844
 778 783 822 816
 740 744 783 778
 701 705 744 740
 663 667 705 701
 623 635 667 663
 594 601 635 623
 559 565 601 594
 523 529 565 559
 487 498 529 523
 460 468 498 487
 426 435 468 460
 397 410 435 426
 371 380 410 397
 347 361 380 371
 321 333 361 347
 306 319 333 321
 298 311 319 306
 294 309 311 298
 846 848 859 858
 822 826 848 846
 783 787 826 822
 744 748 787 783
 705 710 748 744
 667 676 710 705
 635 643 676 667
 601 608 643 635
 565 570 608 601
 529 534 570 565
 498 507 534 529
 468 475 507 498
 435 443 475 468
 410 420 443 435
 380 389 420 410
 361 372 389 380
 333 355 372 361
 319 331 355 333
 311 324 331 319
 309 322 324 311
 848 851 860 859
 826 830 851 848
 787 792 830 826
 748 752 792 787
 710 717 752 748
 676 685 717 710
 643 650 685 676
 608 613 650 643
 570 577 613 608
 534 547 577 570
 507 515 547 534
 475 483 515 507
 443 456 483 475
 420 429 456 443
 389 405 429 420
 372 381 405 389
 355 366 381 372
 331 352 366 355
 324 341 352 331
 322 336 341 324</DataArray>
            <DataArray Name="offsets" format="ascii" type="Int32">4 8 12 16 20 24 28 32 36 40 44 48 52 56 60 64 68 72 76 80 84 88 92 96 100 104 108 112 116 120 124 128 132 136 140 144 148 152 156 160 164 168 172 176 180 184 188 192 196 200 204 208 212 216 220 224 228 232 236 240 244 248 252 256 260 264 268 272 276 280 284 288 292 296 300 304 308 312 316 320 324 328 332 336 340 344 348 352 356 360 364 368 372 376 380 384 388 392 396 400 404 408 412 416 420 424 428 432 436 440 444 448 452 456 460 464 468 472 476 480 484 488 492 496 500 504 508 512 516 520 524 528 532 536 540 544 548 552 556 560 564 568 572 576 580 584 588 592 596 600 604 608 612 616 620 624 628 632 636 640 644 648 652 656 660 664 668 672 676 680 684 688 692 696 700 704 708 712 716 720 724 728 732 736 740 744 748 752 756 760 764 768 772 776 780 784 788 792 796 800 804 808 812 816 820 824 828 832 836 840 844 848 852 856 860 864 868 872 876 880 884 888 892 896 900 904 908 912 916 920 924 928 932 936 940 944 948 952 956 960 964 968 972 976 980 984 988 992 996 1000 1004 1008 1012 1016 1020 1024 1028 1032 1036 1040 1044 1048 1052 1056 1060 1064 1068 1072 1076 1080 1084 1088 1092 1096 1100 1104 1108 1112 1116 1120 1124 1128 1132 1136 1140 1144 1148 1152 1156 1160 1164 1168 1172 1176 1180 1184 1188 1192 1196 1200 1204 1208 1212 1216 1220 1224 1228 1232 1236 1240 1244 1248 1252 1256 1260 1264 1268 1272 1276 1280 1284 1288 1292 1296 1300 1304 1308 1312 1316 1320 1324 1328 1332 1336 1340 1344 1348 1352 1356 1360 1364 1368 1372 1376 1380 1384 1388 1392 1396 1400 1404 1408 1412 1416 1420 1424 1428 1432 1436 1440 1444 1448 1452 1456 1460 1464 1468 1472 1476 1480 1484 1488 1492 1496 1500 1504 1508 1512 1516 1520 1524 1528 1532 1536 1540 1544 1548 1552 1556 1560 1564 1568 1572 1576 1580 1584 1588 1592 1596 1600 1604 1608 1612 1616 1620 1624 1628 1632 1636 1640 1644 1648 1652 1656 1660 1664 1668 1672 1676 1680 1684 1688 1692 1696 1700 1704 1708 1712 1716 1720 1724 1728 1732 1736 1740 1744 1748 1752 1756 1760 1764 1768 1772 1776 1780 1784 1788 1792 1796 1800 1804 1808 1812 1816 1820 1824 1828 1832 1836 1840 1844 1848 1852 1856 1860 1864 1868 1872 1876 1880 1884 1888 1892 1896 1900 1904 1908 1912 1916 1920 1924 1928 1932 1936 1940 1944 1948 1952 1956 1960 1964 1968 1972 1976 1980 1984 1988 1992 1996 2000 2004 2008 2012 2016 2020 2024 2028 2032 2036 2040 2044 2048 2052 2056 2060 2064 2068 2072 2076 2080 2084 2088 2092 2096 2100 2104 2108 2112 2116 2120 2124 2128 2132 2136 2140 2144 2148 2152 2156 2160 2164 2168 2172 2176 2180 2184 2188 2192 2196 2200 2204 2208 2212 2216 2220 2224 2228 2232 2236 2240 2244 2248 2252 2256 2260 2264 2268 2272 2276 2280 2284 2288 2292 2296 2300 2304 2308 2312 2316 2320 2324 2328 2332 2336 2340 2344 2348 2352 2356 2360 2364 2368 2372 2376 2380 2384 2388 2392 2396 2400 2404 2408 2412 2416 2420 2424 2428 2432 2436 2440 2444 2448 2452 2456 2460 2464 2468 2472 2476 2480 2484 2488 2492 2496 2500 2504 2508 2512 2516 2520 2524 2528 2532 2536 2540 2544 2548 2552 2556 2560 2564 2568 2572 2576 2580 2584 2588 2592 2596 2600 2604 2608 2612 2616 2620 2624 2628 2632 2636 2640 2644 2648 2652 2656 2660 2664 2668 2672 2676 2680 2684 2688 2692 2696 2700 2704 2708 2712 2716 2720 2724 2728 2732 2736 2740 2744 2748 2752 2756 2760 2764 2768 2772 2776 2780 2784 2788 2792 2796 2800 2804 2808 2812 2816 2820 2824 2828 2832 2836 2840 2844 2848 2852 2856 2860 2864 2868 2872 2876 2880 2884 2888 2892 2896 2900 2904 2908 2912 2916 2920 2924 2928 2932 2936 2940 2944 2948 2952 2956 2960 2964 2968 2972 2976 2980 2984 2988 2992 2996 3000 3004 3008 3012 3016 3020 3024 3028 3032 3036 3040 3044 3048 3052 3056 3060 3064 3068 3072 3076 3080 3084 3088 3092 3096 3100 3104 3108 3112 3116 3120 3124 3128 3132 3136 3140 3144 3148 3152 3156 3160 3164 3168 3172 3176 3180 3184 3188 3192 3196 3200 </DataArray>
            <DataArray Name="types" format="ascii" type="UInt8">9 9 9 9 9 9 9 9 9 9 9 9 9 9 9 9 9 9 9 9 9 9 9 9 9 9 9 9 9 9 9 9 9 9 9 9 9 9 9 9 9 9 9 9 9 9 9 9 9 9 9 9 9 9 9 9 9 9 9 9 9 9 9 9 9 9 9 9 9 9 9 9 9 9 9 9 9 9 9 9 9 9 9 9 9 9 9 9 9 9 9 9 9 9 9 9 9 9 9 9 9 9 9 9 9 9 9 9 9 9 9 9 9 9 9 9 9 9 9 9 9 9 9 9 9 9 9 9 9 9 9 9 9 9 9 9 9 9 9 9 9 9 9 9 9 9 9 9 9 9 9 9 9 9 9 9 9 9 9 9 9 9 9 9 9 9 9 9 9 9 9 9 9 9 9 9 9 9 9 9 9 9 9 9 9 9 9 9 9 9 9 9 9 9 9 9 9 9 9 9 9 9 9 9 9 9 9 9 9 9 9 9 9 9 9 9 9 9 9 9 9 9 9 9 9 9 9 9 9 9 9 9 9 9 9 9 9 9 9 9 9 9 9 9 9 9 9 9 9 9 9 9 9 9 9 9 9 9 9 9 9 9 9 9 9 9 9 9 9 9 9 9 9 9 9 9 9 9 9 9 9 9 9 9 9 9 9 9 9 9 9 9 9 9 9 9 9 9 9 9 9 9 9 9 9 9 9 9 9 9 9 9 9 9 9 9 9 9 9 9 9 9 9 9 9 9 9 9 9 9 9 9 9 9 9 9 9 9 9 9 9 9 9 9 9 9 9 9 9 9 9 9 9 9 9 9 9 9 9 9 9 9 9 9 9 9 9 9 9 9 9 9 9 9 9 9 9 9 9 9 9 9 9 9 9 9 9 9 9 9 9 9 9 9 9 9 9 9 9 9 9 9 9 9 9 9 9 9 9 9 9 9 9 9 9 9 9 9 9 9 9 9 9 9 9 9 9 9 9 9 9 9 9 9 9 9 9 9 9 9 9 9 9 9 9 9 9 9 9 9 9 9 9 9 9 9 9 9 9 9 9 9 9 9 9 9 9 9 9 9 9 9 9 9 9 9 9 9 9 9 9 9 9 9 9 9 9 9 9 9 9 9 9 9 9 9 9 9 9 9 9 9 9 9 9 9 9 9 9 9 9 9 9 9 9 9 9 9 9 9 9 9 9 9 9 9 9 9 9 9 9 9 9 9 9 9 9 9 9 9 9 9 9 9 9 9 9 9 9 9 9 9 9 9 9 9 9 9 9 9 9 9 9 9 9 9 9 9 9 9 9 9 9 9 9 9 9 9 9 9 9 9 9 9 9 9 9 9 9 9 9 9 9 9 9 9 9 9 9 9 9 9 9 9 9 9 9 9 9 9 9 9 9 9 9 9 9 9 9 9 9 9 9 9 9 9 9 9 9 9 9 9 9 9 9 9 9 9 9 9 9 9 9 9 9 9 9 9 9 9 9 9 9 9 9 9 9 9 9 9 9 9 9 9 9 9 9 9 9 9 9 9 9 9 9 9 9 9 9 9 9 9 9 9 9 9 9 9 9 9 9 9 9 9 9 9 9 9 9 9 9 9 9 9 9 9 9 9 9 9 9 9 9 9 9 9 9 9 9 9 9 9 9 9 9 9 9 9 9 9 9 9 9 9 9 9 9 9 9 9 9 9 9 9 9 9 9 9 9 9 9 9 9 9 9 9 9 9 9 9 9 9 9 9 9 9 9 9 9 9 9 9 9 9 9 9 9 9 9 9 9 9 9 9 9 9 9 9 9 9 9 9 9 9 9 9 9 9 9 9 </DataArray>
         </Cells>
         <PointData>
            <DataArray Name="compliance" NumberOfComponents="1" format="ascii" type="Float64">
0.6917 
1.7818 
2.6600 
2.4570 
2.7673 
0.2040 
0.0354 
-0.0358 
3.6417 
-0.0030 
-0.0333 
4.5985 
-0.1255 
4.5779 
-0.2127 
0.1561 
3.5969 
-0.2092 
0.1130 
0.1113 
0.1089 
0.1144 
-0.0791 
2.6967 
0.1545 
0.1021 
2.2706 
0.1987 
0.2504 
0.1187 
2.1536 
0.1286 
0.2141 
2.1788 
-0.0003 
0.0194 
0.4017 
0.0200 
0.0195 
0.4864 
0.0208 
1.7581 
2.3199 
0.0080 
0.0200 
0.8453 
2.2187 
-0.0671 
2.0736 
0.0972 
1.4674 
1.1981 
2.1342 
1.4658 
0.9116 
1.3456 
4.3708 
0.0223 
0.9998 
0.0183 
0.6438 
0.0204 
3.0049 
0.0235 
0.0224 
1.4045 
0.0393 
0.7461 
0.6353 
0.6717 
-0.0176 
1.4493 
0.1555 
0.1387 
0.9359 
1.8480 
0.3087 
3.9938 
1.3493 
0.0196 
1.2693 
3.0401 
0.0691 
0.0514 
1.0938 
0.5684 
1.6231 
0.1426 
-0.0591 
0.0085 
-0.1661 
0.0096 
0.0106 
0.0102 
0.7630 
0.0192 
-0.0105 
0.0112 
2.0766 
0.1493 
0.1280 
-0.0892 
1.6027 
0.0328 
0.4361 
3.6484 
2.5705 
0.1316 
2.9142 
0.0268 
-0.0032 
0.0335 
0.5960 
2.9377 
0.2286 
0.0142 
-0.0794 
0.1028 
0.4751 
0.0824 
0.0154 
-0.2348 
3.0573 
0.0739 
0.0922 
0.0031 
0.0038 
0.0038 
0.0197 
0.8593 
0.0094 
-0.0036 
-0.2101 
2.4533 
0.0536 
0.0529 
1.2126 
0.0112 
0.0490 
0.0543 
3.3343 
1.3906 
3.1407 
1.3352 
-0.1103 
0.0431 
-0.0319 
0.8617 
2.1871 
0.0194 
-0.0373 
0.0447 
0.5686 
-0.0433 
0.1101 
-0.0879 
3.3084 
0.1376 
0.0516 
-0.0013 
0.1961 
-0.0824 
0.1160 
0.0045 
0.0447 
3.8509 
0.1258 
0.0002 
-0.0094 
0.0007 
-0.0066 
0.0009 
0.0053 
-0.0126 
-0.0404 
0.0331 
0.0230 
0.1129 
0.9327 
3.0694 
3.2129 
0.1687 
0.1452 
3.4311 
-0.0013 
-0.0094 
1.1356 
-0.0936 
0.0229 
0.1299 
-0.0317 
2.1401 
0.4758 
-0.0729 
0.1356 
0.0273 
-0.0060 
0.1970 
-0.0929 
0.0149 
1.5319 
0.1655 
-0.1392 
0.8962 
0.0594 
0.1696 
-0.0032 
-0.0580 
0.1500 
-0.1789 
0.0080 
0.1954 
0.9605 
1.3820 
0.2299 
0.3289 
-0.0005 
0.0014 
-0.0275 
-0.0345 
-0.0015 
0.0117 
-0.0620 
0.0557 
0.0014 
0.6090 
1.9285 
0.4904 
2.8575 
0.6556 
3.8191 
0.0987 
1.6434 
0.0548 
-0.0008 
-0.0011 
0.0013 
2.2353 
-0.0029 
0.1185 
1.1019 
0.2121 
0.5143 
0.1863 
0.1356 
1.0067 
0.1408 
1.6129 
0.0161 
0.0004 
2.1112 
0.0455 
0.1727 
-0.0008 
1.5288 
0.5096 
0.2184 
2.3289 
1.7110 
0.1119 
0.0061 
1.9375 
-0.0001 
-0.0439 
1.1053 
0.0004 
-0.0300 
2.2372 
2.0913 
0.3863 
1.1396 
0.0002 
-0.0022 
0.0001 
0.0165 
1.7417 
-0.0509 
-0.0038 
1.4396 
0.3759 
-0.0001 
2.1358 
1.8559 
1.4097 
3.2887 
1.8420 
0.4963 
0.0697 
2.2990 
1.4863 
0.0019 
1.1286 
-0.0393 
2.3621 
0.0000 
0.0168 
0.1451 
2.4780 
0.0000 
0.0951 
1.0484 
0.0589 
1.0038 
0.1115 
2.8063 
2.1323 
0.0009 
0.0041 
0.0344 
0.0000 
0.8172 
-0.0000 
1.5115 
-0.0430 
1.1629 
-0.0223 
2.4804 
0.0699 
0.7983 
0.0006 
1.0207 
0.0047 
0.0000 
0.7607 
-0.0000 
1.9549 
2.2081 
0.0148 
0.4693 
1.2200 
1.1940 
0.0003 
3.2562 
0.0033 
2.8322 
-0.0047 
0.0000 
0.3349 
0.0402 
-0.1364 
0.9433 
0.0000 
3.3433 
3.0800 
0.1815 
0.9349 
3.1666 
0.0070 
1.1831 
-0.0801 
0.6835 
2.1425 
0.0001 
1.0397 
3.2722 
0.0026 
1.0534 
0.4133 
1.1894 
-0.0169 
-0.2122 
0.0076 
0.9242 
0.7550 
2.9544 
0.7863 
0.0023 
0.5437 
0.8921 
-0.1559 
0.6167 
0.0140 
0.0076 
0.8313 
1.3609 
1.2046 
-0.2095 
2.7291 
1.5178 
2.5239 
0.0081 
0.0088 
3.2684 
-0.1465 
2.1954 
-0.0270 
3.5805 
3.0909 
1.2784 
0.0113 
-0.0856 
1.9174 
0.0040 
0.0249 
3.6301 
-0.0604 
0.4508 
0.0134 
2.2764 
2.5811 
0.6435 
0.1359 
1.3690 
0.1013 
0.5898 
0.0134 
0.2431 
0.2549 
2.2028 
0.2262 
0.0065 
-0.0510 
0.3426 
0.5272 
2.3547 
0.6505 
1.3053 
0.2146 
0.0130 
0.7020 
0.0094 
2.1798 
4.0618 
1.0874 
2.9005 
0.0170 
-0.0303 
3.0920 
2.3948 
0.0106 
3.8222 
2.3717 
0.0163 
1.1673 
2.9184 
0.0128 
2.6700 
-0.1329 
0.2679 
1.8437 
-0.0475 
0.0065 
0.0036 
0.0033 
0.0094 
-0.0323 
0.7512 
0.6223 
1.6421 
1.7230 
0.7755 
-0.0007 
1.5236 
0.9448 
0.6966 
-0.0264 
0.0063 
0.2857 
0.7242 
3.8659 
-0.0804 
1.1027 
-0.0982 
1.7426 
0.1930 
2.3524 
3.8373 
-0.1135 
0.0213 
2.4410 
0.2522 
1.8539 
0.2103 
2.9984 
1.0198 
-0.0015 
0.3695 
0.1873 
0.9929 
1.1630 
0.0323 
2.1484 
1.2460 
0.0046 
-0.0043 
0.0630 
2.7885 
-0.0545 
2.9577 
0.0544 
0.0070 
0.0049 
0.0342 
-0.1021 
0.4733 
1.9291 
1.8398 
2.2305 
0.0153 
0.0636 
2.0511 
3.2767 
2.1030 
0.8876 
2.3537 
0.0797 
2.5693 
-0.0006 
3.1466 
2.2051 
0.0790 
0.3419 
1.3211 
0.5488 
-0.0017 
0.0035 
1.7907 
0.2561 
0.1451 
-0.0152 
-0.0242 
0.9538 
-0.0345 
0.1144 
0.2352 
0.0345 
1.9391 
0.0428 
0.6762 
-0.0165 
0.0289 
1.2861 
2.4319 
0.0317 
0.0075 
-0.0055 
-0.0110 
-0.0890 
1.8114 
0.2948 
0.0293 
1.8669 
3.0990 
2.9404 
3.1775 
3.1709 
0.0266 
0.0009 
3.4118 
1.7589 
3.2133 
2.0894 
0.0260 
1.9186 
0.5731 
1.4177 
0.0396 
0.0258 
-0.0570 
0.3042 
1.3778 
0.0427 
-0.0066 
0.0327 
-0.0162 
-0.0508 
0.0359 
1.7057 
0.0255 
-0.0342 
0.0161 
2.0919 
0.0248 
0.0861 
0.0282 
2.7150 
0.0281 
-0.0011 
0.4017 
0.0287 
0.0600 
2.0518 
0.1109 
0.5265 
1.1871 
1.9246 
3.3623 
0.0286 
3.6158 
3.4852 
3.6517 
3.2000 
0.0276 
2.3794 
0.3755 
1.5760 
0.1913 
0.0240 
-0.0936 
2.8522 
0.0139 
-0.0510 
0.0215 
0.0336 
2.7320 
0.0238 
0.0297 
0.0186 
0.0177 
0.0188 
2.7669 
0.0262 
0.0219 
-0.0037 
0.0016 
0.0233 
3.1124 
0.0234 
-0.0793 
0.0238 
2.7073 
-0.0186 
0.0237 
0.8397 
0.0235 
0.1937 
0.5699 
1.0187 
1.4918 
2.6618 
3.2325 
3.4303 
0.0231 
3.7475 
3.2395 
-0.1233 
1.4646 
2.7787 
0.0228 
0.0918 
-0.0483 
0.0493 
3.4678 
0.0299 
0.0219 
0.0179 
0.0167 
0.0186 
3.4096 
0.0187 
0.0006 
0.0203 
0.0185 
0.0210 
3.5685 
0.0195 
0.0208 
0.0207 
3.7011 
0.0443 
0.0210 
0.0211 
-0.0044 
2.3380 
0.0211 
-0.0340 
0.0211 
0.3961 
1.3745 
1.2090 
0.0210 
1.5956 
2.2540 
2.8622 
3.4094 
3.8751 
-0.0608 
3.2718 
0.0207 
1.4352 
0.1079 
3.0549 
-0.0203 
0.0206 
0.0481 
0.0057 
0.0149 
3.5551 
0.0228 
0.0210 
0.0215 
0.0205 
0.0204 
3.4512 
0.0196 
0.0190 
0.0205 
3.6550 
0.0188 
0.0114 
0.0186 
3.3752 
0.0185 
0.0351 
0.0184 
1.8263 
-0.0148 
0.0184 
0.0184 
0.1414 
0.4076 
0.0186 
4.7904 
5.1143 
1.7276 
4.7221 
4.1032 
0.1230 
3.3914 
0.0188 
2.3263 
0.9599 
0.0481 
-0.0179 
0.0191 
3.3732 
0.0518 
0.0186 
0.0194 
0.0252 
3.5163 
0.0202 
0.0201 
0.0189 
0.0177 
3.2547 
0.0207 
0.0171 
0.0165 
0.0241 
3.0457 
0.0161 
0.0158 
0.0181 
2.3456 
0.0156 
0.0155 
0.0383 
1.2469 
0.0154 
-0.0396 
0.0154 
0.6330 
0.3523 
0.0155 
0.0157 
16.8813 
10.9590 
2.0776 
6.7349 
3.6878 
1.4944 
0.4679 
0.0159 
-0.0361 
-0.0150 
0.0507 
3.6460 
0.0136 
0.0164 
0.0200 
0.0155 
0.0171 
0.0153 
3.7543 
0.0147 
0.0181 
0.0144 
3.3134 
0.0141 
0.0192 
0.0139 
0.0138 
2.8854 
0.0226 
0.0137 
0.0136 
2.4332 
0.0237 
0.0135 
0.0414 
0.0134 
2.2929 
0.0133 
-0.0467 
0.0132 
0.3524 
0.0130 
35.0834 
0.0129 
19.5459 
10.2931 
5.0337 
1.8421 
2.1588 
1.2442 
0.2737 
-0.0182 
0.0128 
0.0161 
3.5206 
0.0102 
0.0115 
0.0128 
0.0118 
0.0121 
4.4494 
0.0129 
0.0123 
0.0125 
0.0133 
0.0127 
5.1268 
0.0128 
0.0136 
0.0128 
5.7752 
0.0128 
0.0156 
0.0128 
5.7679 
0.0127 
0.0130 
0.0126 
0.0430 
0.0124 
0.0122 
-0.0857 
0.0119 
0.1767 
0.0115 
1.3415 
0.0110 
0.0105 
3.6101 
0.0099 
6.5572 
0.0091 
10.5851 
0.0083 
0.0069 
15.8671 
0.0070 
0.0014 
0.0231 
0.2587 
1.0051 
4.1287 
9.0552 
17.3240 
30.7323 </DataArray>
            <DataArray Name="strain" NumberOfComponents="3" format="ascii" type="Float64">
4.3504 14.9505 -12.5683 
1.9182 17.7122 -8.9425 
0.5350 16.0705 -6.5968 
-0.3265 10.4471 -5.1715 
-1.1594 9.4076 -4.6197 
-19.3961 -4.6263 22.4418 
-11.9925 -6.1046 19.1666 
-7.2903 -5.7764 14.1976 
-1.7251 10.2529 -4.1541 
-4.1420 -3.4827 10.7907 
-1.6479 -3.0425 8.6164 
-1.8392 11.0986 -3.3907 
-0.3208 -3.2757 7.0185 
-1.6528 9.7269 -2.3908 
-0.2116 -3.4292 5.3410 
-24.2163 8.7722 2.4799 
-1.1489 6.8070 -1.8626 
-0.4556 -2.7206 3.7758 
-19.0532 6.3551 8.6772 
-14.2049 3.0546 14.1098 
-10.6759 1.3488 12.0254 
-8.1180 -0.7368 12.2791 
-1.2054 -1.4598 2.5791 
-1.0046 4.6235 -1.5891 
-6.3447 -3.2528 14.3774 
-1.3952 -0.4366 1.2022 
-0.9495 3.4777 -1.5582 
-5.3104 -4.9111 15.2634 
-6.3868 -4.1126 12.3914 
-1.2492 0.1763 -0.1118 
-0.8746 3.0694 -1.8645 
-5.3145 -1.2817 6.3018 
-1.1418 0.4240 -0.9704 
-0.9274 3.0211 -2.3914 
-7.8880 2.7936 -0.4950 
-10.6329 3.4228 0.6778 
-4.1909 0.7253 1.3215 
-11.4664 3.6835 2.8783 
-11.6816 3.0966 5.7719 
-0.9750 0.5349 -1.7798 
-11.8886 2.6918 7.9759 
-3.4091 0.9275 -0.5698 
-1.0556 3.1504 -3.1422 
-11.6959 2.5437 8.2694 
-11.6335 1.9397 13.3477 
-0.6877 0.5604 -2.9941 
-2.8892 0.5056 -1.6904 
-9.0940 1.3602 6.5322 
-1.0016 2.7645 -3.3806 
-6.8054 1.4053 -4.7676 
-2.4481 -0.0769 -3.6043 
-0.4873 0.5769 -4.1214 
-5.4806 1.3443 -3.5452 
-0.6760 1.7873 -3.0539 
-2.3031 -0.3588 -4.7375 
-0.3447 0.6849 -4.3979 
-4.7871 1.2452 -3.3547 
-9.0127 2.9447 0.5431 
-0.2072 0.9136 -2.9440 
-8.4766 2.8741 1.0546 
-2.4587 0.1056 -5.5323 
-8.7118 3.0200 2.2603 
-4.3368 1.0734 -3.2210 
-8.9381 3.3207 3.5974 
-8.9843 3.5464 4.7058 
-0.3531 0.9015 -4.0969 
-9.1149 3.6530 9.0475 
-4.1589 0.9786 -4.3071 
0.2224 0.2168 -2.7835 
-2.0689 1.3773 -7.7903 
-7.3262 2.2987 3.7203 
-0.3773 1.0847 -3.6475 
-4.4351 1.1250 -4.4879 
-3.2062 1.4743 -6.1072 
0.0246 2.8060 -10.4801 
-4.1831 1.2060 -3.3551 
0.4803 -0.2591 -2.2789 
-4.1518 1.1348 -3.0075 
-0.1694 1.0208 -3.1073 
-1.7063 2.7271 -8.6402 
2.2676 3.2529 -11.1231 
-3.9387 1.3198 -2.3824 
0.5903 -0.4530 -1.5826 
-0.9376 7.3581 -16.3655 
0.1766 0.7079 -2.5334 
-3.6517 0.7002 -1.1117 
2.9104 2.9187 -9.9258 
-0.8043 12.3321 -23.7889 
0.5716 -0.3107 -0.7230 
-6.3591 2.1536 0.4280 
-3.0585 3.7671 -5.3587 
-6.4743 2.2217 1.6617 
-6.4440 2.2820 3.5986 
-6.5041 2.4335 5.3015 
0.5719 0.2309 -1.9150 
-6.6910 2.4379 7.8526 
-5.3365 1.5440 2.8562 
-1.2099 9.2361 -13.2020 
2.5015 2.5780 -8.4394 
-0.2634 10.1245 -20.2135 
-3.4057 0.9179 -3.1084 
0.4397 -0.1405 -0.0351 
-3.9145 1.0672 -2.5879 
-0.1523 9.8065 -13.2427 
0.8551 -0.1849 -1.3152 
-4.0282 1.1388 -2.5743 
1.7372 2.3053 -6.9530 
0.8393 4.9784 -13.1549 
-3.9713 1.2094 -2.5452 
0.2583 8.3475 -11.2288 
0.0817 0.0654 0.1464 
0.9342 -0.5513 -0.7755 
-3.8075 0.8011 -2.1935 
1.1550 2.0696 -5.7715 
2.1980 2.6529 -10.9890 
-1.0099 8.8247 -10.5037 
-3.2598 2.2675 -3.6936 
-0.6420 0.0779 1.1085 
4.0246 1.7271 -11.0014 
-1.2169 10.2802 -13.3240 
-3.4702 10.9708 -10.1879 
0.9192 -0.8184 -0.1746 
0.9771 2.0922 -5.4177 
-1.3385 13.9379 -16.3737 
-1.1331 -0.6621 4.0652 
-3.5789 1.1999 0.6091 
-3.7050 1.1994 1.8630 
-3.8703 1.2646 3.5282 
-4.4405 12.6270 -10.4987 
4.8373 1.0651 -9.7900 
-3.8986 1.0540 5.9931 
-3.1448 0.6964 2.7889 
0.8235 -0.6984 0.6013 
1.0183 1.8130 -5.1107 
-1.6976 11.9619 -14.0853 
-2.3230 0.7180 -1.8404 
-3.2549 0.9319 -1.7164 
-3.7956 14.0676 -13.5944 
-0.9467 -0.6332 4.6214 
-1.8616 12.1982 -14.6201 
-3.7206 1.1114 -2.2064 
3.8806 0.9977 -8.3151 
-4.1270 1.2237 -2.7290 
1.2976 0.7855 -3.9647 
0.6595 -0.4051 1.1839 
-1.7520 9.9573 -13.4793 
-2.4585 11.5158 -14.2699 
-4.3915 1.0770 -3.1236 
2.7842 1.6911 -8.1122 
-1.0699 -0.1418 3.1312 
-4.3542 2.7746 -4.9641 
-0.8135 8.7750 -13.4001 
1.7070 -0.0472 -3.1680 
0.2500 0.5848 0.4832 
-3.0340 15.9617 -16.3211 
-0.9417 3.7911 -5.6178 
2.0665 2.6047 -8.3360 
-2.9795 22.4188 -20.4216 
-1.6649 10.2235 -13.7071 
-0.8556 -0.2125 2.3669 
1.9657 -0.1151 -3.5514 
-0.0868 -0.2713 -0.1347 
-3.7142 19.1484 -18.2472 
-0.2223 1.8447 -0.1530 
-3.9465 10.8766 -13.5428 
1.7433 2.8384 -7.8473 
-4.3724 19.7030 -20.0952 
-1.1572 0.4183 0.3484 
-0.5789 -0.0145 1.2762 
-1.6197 0.4580 0.9067 
0.2884 -0.2024 -1.7757 
-1.7416 0.1955 2.3983 
-1.6813 0.1771 1.5301 
1.8164 -0.0927 -3.3381 
-1.6769 0.6062 -0.6095 
-6.5647 11.4999 -12.5162 
-0.8509 2.1350 0.4904 
-4.4422 18.1809 -19.9360 
-2.8225 0.8898 -1.1547 
1.6809 2.3460 -6.8118 
-3.5333 1.0756 -1.9027 
-4.2643 23.4781 -24.4090 
0.5493 -0.1930 -2.4382 
-4.1753 1.3066 -2.8781 
-7.7477 9.6553 -8.4920 
-0.4351 0.2416 0.4259 
-4.7377 0.9415 -3.5558 
1.6410 -0.2495 -2.5629 
-1.5167 2.0847 0.8309 
-4.3941 20.6716 -23.3134 
-5.2602 4.1947 -5.8112 
1.8424 1.8910 -6.6341 
0.5960 -0.0377 -2.1753 
-6.6849 5.1204 -4.0615 
-4.5869 20.6403 -15.9482 
-4.0856 7.2759 -14.7012 
-0.1817 0.2513 -0.1331 
-5.0252 27.4377 -19.5126 
1.5497 -0.2003 -2.5640 
-2.0302 2.1580 0.3706 
2.3419 1.5653 -7.2826 
-6.4379 23.6029 -17.8739 
-5.2386 2.3886 -3.4113 
0.3769 0.2585 -2.3105 
-3.7526 2.1558 -11.5274 
-6.4489 24.0816 -19.0998 
0.1618 0.2703 -0.5864 
1.3342 0.2339 -3.2266 
-3.4732 1.1508 -11.7114 
-3.9360 1.5275 -3.8563 
-2.0224 1.7237 0.0544 
-5.8698 26.4881 -19.8709 
3.0557 1.0730 -7.8286 
0.3161 0.6376 -3.1315 
-5.7436 29.3994 -21.0197 
-3.4314 -0.0309 -10.7148 
-0.0391 0.3419 -0.6830 
-1.2144 0.4312 -0.3063 
0.7850 1.9063 -6.8362 
-2.5858 1.1346 -2.2959 
-1.7171 0.3785 -1.1639 
-1.9106 0.2495 -2.0422 
-1.8936 0.4895 -1.3164 
-5.3988 13.7371 -14.8600 
-1.0231 0.9991 -0.4032 
-2.6694 0.8443 -0.8518 
0.4148 0.9718 -4.1194 
3.7784 0.3561 -7.4941 
-3.4291 0.9859 -1.6099 
-3.1246 -1.0112 -9.3662 
-4.4344 1.3378 -2.5230 
-5.9275 0.7743 -6.6695 
-5.6452 1.1830 -3.6668 
-1.2329 0.6293 -0.7624 
0.0394 3.1694 -8.5907 
-6.5031 3.8327 -5.9277 
-0.1158 0.2400 -0.5584 
0.6751 1.0769 -4.8532 
-0.2030 0.6178 -0.9873 
-5.6438 19.4459 -15.7356 
-2.5642 -1.6976 -8.0820 
4.1186 -0.3804 -6.4394 
-5.3712 1.2644 -5.2875 
-5.3445 25.8057 -19.6147 
-0.2813 0.1412 -1.2011 
-3.7606 -0.1669 -5.3970 
-5.9546 22.2233 -16.6781 
-2.2710 -1.9893 -6.9855 
-0.6921 2.8112 -6.1038 
0.0219 0.0400 -0.4294 
1.1371 0.8624 -5.1253 
3.5130 -1.0139 -4.7036 
-5.6646 25.2639 -17.8404 
-0.0118 0.4995 -1.0698 
-2.3101 -0.8266 -5.7789 
0.3402 -0.0539 -2.1704 
-5.6513 29.2265 -19.2118 
-2.1646 -2.1945 -6.5065 
1.9943 0.3924 -5.0600 
-4.9969 17.8917 -15.6644 
-0.3700 2.0586 -4.7912 
-1.1724 -1.4697 -5.8330 
0.1048 -0.1066 -0.2525 
2.9795 -1.1438 -6.8905 
0.8001 -0.1193 -3.0985 
-0.0005 0.4406 -0.9575 
-4.7234 2.8659 -7.1958 
-1.7923 -2.0912 -5.4990 
-0.4502 -1.7560 -5.4985 
-4.6774 1.5511 -3.4588 
3.4089 -0.1825 -5.0079 
0.3957 1.1544 -4.3917 
-3.7787 1.2282 -0.6771 
0.0784 -0.1498 -0.0840 
-3.7205 1.3249 -1.7290 
1.3098 -0.1724 -3.5790 
-3.8188 1.1656 -3.3888 
2.7327 -0.8776 -10.7416 
-1.1407 -2.1584 -4.2670 
-3.8713 1.0515 -2.8999 
0.1158 0.2990 -0.7852 
-3.6793 1.1468 -1.5793 
-0.1426 -1.7009 -4.6712 
-3.3772 0.4252 -3.7630 
-3.6593 1.1445 -1.4032 
-3.7709 1.1268 -1.1610 
4.9000 -0.8071 -5.0965 
-3.8209 1.6722 -1.8091 
-2.3375 0.2953 -4.4723 
0.0292 -1.6325 -3.7128 
0.8017 0.5348 -3.8445 
-0.2001 -2.6787 -3.7115 
-3.5291 13.1373 -10.6997 
1.8670 -0.2624 -3.7874 
0.0605 -0.1368 0.0537 
2.6110 -0.5345 -9.3683 
-3.3551 22.2429 -16.0961 
-1.7073 -0.0017 -4.5111 
0.1986 0.1389 -0.5740 
-4.0281 21.0153 -12.2768 
0.0412 -1.6618 -2.7376 
5.3158 -1.2458 -5.3019 
0.9410 -2.6308 -3.1408 
-3.6324 19.4543 -11.7047 
2.3805 -0.3676 -4.0877 
-1.1025 -0.1925 -4.3146 
0.9782 0.1831 -2.9308 
2.6201 -0.4872 -6.7218 
-3.4021 11.1419 -9.4732 
0.0348 -0.0980 0.1273 
-0.2514 -2.8524 -3.6241 
0.1927 0.0366 -0.3078 
-0.5132 -0.2372 -3.6504 
-3.3068 3.6855 -6.6702 
1.8825 -2.0449 -3.0205 
5.2894 -2.5000 -5.6969 
2.9545 -0.5359 -4.2274 
-4.0713 1.5152 -3.2398 
0.0317 -0.2026 -2.4244 
1.0617 -0.0921 -2.0428 
0.4355 -6.7564 -6.2927 
2.9112 -0.7883 -5.3507 
-0.0204 -0.0295 0.1068 
-3.8239 0.5153 -3.3801 
0.0901 0.0083 -0.0903 
2.6067 -1.5812 -2.7901 
-3.3325 0.6155 -4.0867 
5.5621 -2.9552 -5.7078 
0.7594 -0.2107 -1.0880 
3.8565 -0.8379 -3.7394 
2.0499 -10.7079 -6.8630 
0.9677 -0.2207 -0.9757 
-3.1781 0.7270 -3.5640 
3.0498 -0.9226 -3.7892 
3.1083 -1.4036 -2.4087 
-6.3722 2.0730 -0.3191 
-0.0869 0.0113 0.0557 
1.5947 -0.4315 -0.3092 
-5.4075 1.8731 -0.9321 
-4.4890 1.8590 -0.8016 
-4.5267 1.8647 -0.1413 
-0.1044 0.0190 0.0039 
-4.1068 1.6401 -0.0996 
-2.9373 0.6505 -3.4741 
4.8572 -1.0355 -4.3282 
2.9686 -10.4166 -5.3009 
-3.3347 1.5873 0.0996 
5.2450 -2.1682 -4.4690 
-2.3929 1.7910 -0.3007 
2.7242 -0.2365 1.1356 
-1.2910 3.5043 -2.6351 
-2.3414 0.6098 -3.9814 
0.6833 -0.2398 -0.3023 
-0.5434 5.8954 -5.0933 
3.3952 -1.3143 -2.2081 
3.1211 -1.0054 -1.8771 
-1.3131 6.4529 -4.0609 
3.5120 -5.4523 -2.9006 
-1.6496 0.7142 -4.1668 
5.7552 -2.1879 -1.3260 
4.0329 -2.3809 -0.1570 
5.3106 -1.9941 -3.0240 
-1.6395 6.0376 -3.0283 
-2.1136 5.3763 -1.9081 
3.5363 -1.2570 -1.9095 
-0.7214 0.9953 -4.1827 
3.1198 -1.0346 -0.6318 
-2.3690 3.6259 -1.4041 
3.7689 -1.7934 -2.1845 
4.8489 -10.2051 -6.7428 
-2.5292 1.7854 -2.0791 
5.9900 -2.8677 1.0352 
5.6306 -1.9589 -1.5598 
0.8891 0.8121 -4.0869 
-2.5322 1.0471 -3.3631 
3.6590 -1.1368 -2.6066 
5.0055 -13.3392 -8.2582 
3.8496 -1.4735 -1.4493 
2.1376 -0.0263 -3.1333 
-2.7806 0.8923 -3.6746 
6.2924 -2.4001 -0.3976 
6.1259 -2.0038 -0.5297 
-3.0131 0.7474 -3.3755 
4.9433 -13.4290 -5.6494 
3.3270 -0.7617 -2.6069 
3.9803 -1.3456 -0.9775 
3.8498 -1.3778 -1.0507 
-2.9977 0.6990 -3.4236 
4.3648 -1.1190 -2.5962 
6.8302 -2.4317 -0.0493 
4.7392 -7.8592 -5.0991 
-3.1038 0.6912 -3.6639 
-6.7556 2.1626 0.5228 
-6.0015 2.2967 -0.4990 
3.8664 -1.3368 -0.7629 
-5.4075 1.7182 2.3615 
-4.7801 1.1875 4.5164 
5.3194 -1.8703 1.9808 
-4.0098 1.2204 2.3791 
-3.0732 0.9338 1.9874 
-3.9380 0.8195 -4.5647 
5.4742 -1.4170 -2.3250 
-2.1706 0.6674 1.8921 
4.7600 -0.8616 -2.5331 
-1.5172 0.5255 1.4039 
7.5902 -2.4733 -0.0545 
-3.4736 2.0773 -8.3553 
-1.2680 0.5188 0.4873 
3.8524 -1.3159 -0.6631 
-0.9782 0.5651 -0.8376 
5.7177 -2.0340 2.0310 
5.7031 -2.2870 -2.9503 
-0.9541 0.5098 -1.9267 
-0.1326 4.6753 -14.8431 
4.4674 -1.4995 -1.0360 
-1.0765 0.3512 -3.1489 
-1.4253 0.2365 -4.1152 
3.7234 -1.1675 -1.8922 
5.2416 -6.1297 -5.2915 
3.3827 3.8497 -13.4110 
6.1884 -2.1025 0.9905 
-1.7898 0.1435 -4.3818 
4.1754 -1.3113 -0.6830 
4.3622 0.6825 -6.5127 
-2.1239 0.0826 -4.3096 
5.4993 -8.3582 -5.5305 
4.0637 -1.1739 0.6557 
-2.3896 0.1151 -4.6199 
3.2841 -0.0789 -4.5157 
6.7567 -2.2029 0.3709 
3.9388 -1.2780 -0.7123 
-2.7852 0.3023 -4.6610 
5.7249 -10.1493 -5.6465 
-3.8997 0.6462 -3.9356 
2.9207 0.0483 -4.9726 
4.3625 -1.3931 2.8831 
3.7492 -1.2227 -0.4946 
5.3885 -5.9866 -2.9394 
-4.9166 1.0080 -3.5945 
2.9186 -0.1426 -4.9232 
-2.9249 2.0676 -7.2829 
-5.2037 1.6771 0.3805 
-5.0783 1.6095 1.3282 
4.6541 -1.5238 0.9700 
-5.0933 1.4943 2.7685 
-4.2267 1.2839 2.4744 
-3.4074 1.0174 1.2669 
3.4882 -1.1286 -1.1406 
4.7114 -0.5500 -0.4402 
-2.8989 0.7874 0.9585 
3.4330 -0.7678 -4.8767 
-1.0571 6.3584 -20.2742 
-2.4260 0.4780 0.8821 
-1.9239 0.1138 0.4044 
-1.4922 -0.1986 -0.3620 
-0.4265 8.8632 -29.9971 
4.8660 -1.5999 0.4360 
4.0899 -2.0258 -5.4716 
-1.3177 -0.4121 -1.2421 
4.2865 -1.5925 -0.7692 
3.1032 -0.8947 0.0169 
-1.2927 -0.5056 -2.1553 
-0.0879 5.0185 -22.2895 
-1.3909 -0.5592 -2.9987 
4.1976 -3.7940 -5.6692 
-1.5086 -0.6515 -4.0429 
3.9477 -1.2147 -0.7869 
2.0550 0.1017 -7.8175 
3.3780 -0.9212 1.2993 
-1.7744 -0.5863 -4.9208 
4.2455 -5.3372 -3.6261 
-2.4479 -0.2375 -5.0851 
4.4199 -1.3502 -2.1929 
3.6658 -1.1913 -0.6917 
-3.7882 0.2147 -4.7971 
3.4867 -1.1276 0.4219 
-4.8562 0.8192 -5.3334 
4.0224 -3.8530 -0.6736 
3.6264 -0.6470 -3.3767 
3.4045 -1.1046 -0.8344 
-3.2527 1.0672 -4.3525 
2.5419 0.0048 -4.9492 
3.9837 -1.6131 0.8324 
3.4236 -1.1379 0.2200 
-0.8703 2.9248 -14.4088 
0.7558 4.2606 -24.4535 
2.1346 0.5562 -6.4292 
3.1757 -0.9683 -0.9983 
3.8360 -1.4077 -0.0748 
1.2248 2.8734 -21.5012 
-3.8422 1.2958 0.1092 
-3.9407 1.2645 0.3376 
-3.5514 0.9345 0.4381 
-3.2813 0.8290 -0.5866 
-3.1405 1.0008 -0.9356 
1.8702 0.3272 -5.6439 
-3.0803 0.9298 -0.6597 
-2.9593 0.7669 -1.0800 
3.3270 -0.9560 -0.4713 
-0.7418 3.0313 -20.1589 
-2.8346 0.5640 -1.4756 
3.6995 -1.2872 -0.4055 
-2.7374 0.3981 -1.9685 
1.6904 -0.4013 -4.0020 
-2.6527 0.2637 -2.5341 
-2.8043 4.7753 -21.6541 
-2.6127 0.1004 -3.3756 
3.2244 -1.0330 -0.0909 
3.6122 -1.2214 -0.6068 
-2.5463 -0.0618 -4.3411 
-2.7130 5.1262 -23.8075 
1.5291 -0.8894 -2.5976 
-2.9763 -0.0140 -4.7281 
-3.8255 0.3051 -4.4999 
-0.4990 1.6156 -13.0222 
3.0700 -1.0224 -0.0653 
3.5669 -1.1966 -0.6010 
1.8001 -1.0444 -0.7319 
-3.9332 0.8213 -4.5195 
2.3267 -0.9887 -3.9440 
-2.0823 1.1527 -3.7949 
2.4588 -1.1372 0.5033 
-0.2339 1.7597 -12.1611 
3.4804 -1.1098 -1.4618 
4.6653 -0.6244 -5.8233 
1.3312 2.1114 -22.2205 
2.9228 -1.1958 0.5789 
2.7456 1.1056 -20.2027 
3.9634 -0.2937 -5.0293 
3.4364 -1.1048 -1.1841 
1.4607 0.9919 -18.3624 
2.4995 0.5056 -5.1454 
3.2256 -1.2360 0.2506 
0.2124 2.0453 -19.4728 
3.5143 -1.1858 -0.1695 
-5.1883 1.8112 -0.4036 
-4.9783 1.5870 -1.8484 
-4.3499 1.3554 -2.7540 
1.6521 1.0491 -4.9910 
-3.7878 1.2218 -2.2334 
-0.0164 2.4299 -19.6130 
-3.6216 1.0409 -2.1072 
-3.4654 0.9213 -2.1502 
3.4245 -1.2345 0.0038 
-3.3649 0.8147 -2.3965 
-3.3219 0.7509 -2.5901 
-0.4344 2.5987 -19.2931 
3.5538 -1.1813 -0.2234 
-3.3370 0.7286 -2.7827 
1.7217 0.7954 -3.5073 
-3.4398 0.7115 -3.2504 
3.5998 -1.2403 -0.0586 
-1.9672 3.4107 -18.1194 
-3.5239 0.7039 -3.7231 
-4.1750 0.8606 -3.7292 
1.9402 0.1973 -1.8412 
-3.4839 4.5209 -18.5731 
-3.6454 1.1542 -3.9335 
-1.7697 1.2525 -5.1861 
3.7440 -1.3017 -0.3809 
2.2558 -0.2174 -0.9764 
-2.0341 4.2522 -21.5399 
-0.0228 1.6160 -13.1820 
1.7164 1.1786 -18.4404 
-0.3909 1.4400 -13.4484 
3.7858 -1.3427 -0.5698 
3.3169 -0.0419 -15.9430 
2.6659 -0.5528 -0.4866 
2.4726 0.0508 -15.8222 
1.4313 -0.7738 -3.8435 
3.8972 -1.3439 -0.2318 
3.0283 -0.8201 -0.2364 
1.0403 0.8999 -17.0363 
3.1988 -0.8577 -4.0988 
0.9847 1.2227 -17.5551 
3.3111 -1.0166 -0.1382 
0.7918 1.2627 -17.4891 
4.0886 -1.3474 -0.0311 
4.0968 -0.6069 -4.7869 
0.2356 1.5480 -17.4737 
-3.9184 0.7497 -1.9722 
3.5240 -1.1441 -0.0703 
-3.8306 0.5786 -3.5673 
-3.8563 0.4246 -5.0181 
3.4363 -0.4043 -4.6104 
-3.7445 0.5995 -3.8836 
-3.6146 0.7877 -2.8008 
-0.2390 1.8475 -17.2629 
-3.5431 0.8220 -2.5582 
-3.5324 0.8471 -2.5619 
-3.5653 0.8896 -2.5924 
-3.6086 0.9243 -2.6875 
-0.3601 1.9210 -17.0998 
3.2287 -0.4943 -3.3471 
3.7215 -1.1910 -0.5876 
-3.5654 0.9752 -2.6619 
-4.0567 1.1045 -2.3337 
-0.4800 1.9568 -16.6417 
-2.2439 1.3561 -5.9317 
3.1404 -0.6052 -2.3382 
-0.3893 1.6858 -13.6832 
4.0054 -1.2959 -0.2786 
-1.9086 2.5833 -15.0463 
1.2743 0.9896 -15.8520 
3.1882 -0.6753 -1.9221 
2.3142 -0.0228 -13.9219 
-3.2037 3.4177 -14.1143 
1.4806 0.2261 -14.5602 
4.0508 -1.3715 0.2546 
0.7482 0.7243 -15.5283 
3.3148 -0.8081 -1.5551 
-1.9391 3.0263 -14.6164 
0.9819 0.7211 -15.8217 
4.0179 -1.3466 -0.0887 
0.0305 1.4859 -13.8720 
1.2126 0.6272 -15.9940 
3.4888 -0.9746 -1.2924 
0.9080 0.7717 -16.2178 
1.9370 -0.3206 -7.7804 
0.6750 0.9769 -16.3613 
3.6788 -1.1341 -0.9611 
3.9109 -1.2257 -2.4944 
0.5264 1.1133 -16.3739 
3.8259 -1.1894 -1.5058 
0.3450 1.2508 -16.3305 
-1.2313 0.4980 -0.1740 
-1.6885 0.5506 -1.2725 
3.6387 -1.1246 -2.1663 
-2.3907 0.6913 -2.6355 
-3.0181 0.8746 -2.7697 
-3.3554 1.0010 -2.5509 
-3.5318 1.0459 -2.4740 
0.0886 1.4353 -16.1449 
-3.6435 1.0597 -2.4761 
-3.6532 1.0340 -2.5677 
3.9456 -1.1608 -1.4630 
-3.6005 1.0588 -2.7104 
3.6301 -1.0350 -2.1410 
-0.1688 1.6146 -15.8179 
-4.1327 0.9564 -1.7603 
-1.7198 1.5653 -9.9319 
0.2708 1.4340 -16.6377 
3.5735 -0.9870 -2.1427 
4.3372 -1.3155 -0.2481 
0.0141 1.5740 -15.5978 
1.0029 0.4281 -14.2423 
0.5130 0.5309 -14.6557 
0.3506 1.3884 -15.2837 
3.6048 -0.9739 -2.0924 
0.4014 0.6794 -15.0892 
4.5540 -1.4851 0.2192 
0.8716 0.4788 -15.0667 
-0.0476 1.4874 -14.7557 
1.0943 0.3558 -15.1105 
3.6877 -1.0073 -2.0545 
-0.6156 1.7718 -13.4967 
0.9727 0.4338 -15.2356 
0.8544 0.5397 -15.2969 
3.8349 -1.0829 -1.9776 
-0.4898 1.7440 -15.7434 
0.8388 0.6110 -15.3370 
0.7474 0.7039 -15.3741 
1.1506 0.3571 -10.4034 
4.0420 -1.1789 -2.0798 
0.6220 0.8256 -15.3883 
3.6126 -0.9572 -2.0324 
0.5073 0.9433 -15.3606 
4.2565 -1.2190 -2.9626 
-2.4293 0.8240 -0.4096 
3.5699 -1.0709 -1.9323 
0.4214 1.0365 -15.3133 
-2.5787 0.8283 -1.0559 
-2.8576 0.8832 -1.9447 
-3.1472 0.9584 -2.4099 
-3.3869 0.9858 -2.7111 
-3.5867 0.9921 -2.9039 
4.8113 -1.4354 -2.8355 
-3.7311 0.9829 -3.1277 
0.3828 1.0945 -15.2669 
-4.0306 1.0550 -3.4416 
-4.6999 1.0421 -2.4635 
3.6994 -1.1105 -1.7651 
-1.5519 1.2691 -12.3966 
0.2973 1.1579 -15.1898 
0.5992 0.6968 -19.2895 
5.2409 -1.6577 -2.0539 
0.4642 0.0492 -15.6544 
3.6838 -1.0822 -1.8711 
0.5658 0.1909 -16.0378 
0.2059 1.2177 -15.1226 
1.0114 -0.0116 -15.4131 
1.1590 -0.0816 -15.0736 
0.3431 1.1771 -15.0411 
3.6806 -1.0440 -1.9157 
1.0921 -0.0099 -14.8470 
1.0683 0.0636 -14.6595 
0.6114 1.0059 -15.2902 
3.6879 -1.0133 -2.0437 
1.0689 0.1287 -14.5312 
0.7425 0.9635 -14.1311 
1.0118 0.2267 -14.4628 
3.7290 -0.9680 -2.3667 
0.9049 0.3512 -14.4146 
0.2827 1.0675 -16.9798 
0.8054 0.4784 -14.3847 
3.7570 -0.7747 -3.6363 
1.7795 -0.0550 -10.8291 
0.7010 0.6057 -14.3791 
0.5916 0.7347 -14.3997 
3.8174 -1.1283 -1.5263 
3.6058 -0.7059 -3.3042 
0.4855 0.8613 -14.4466 
-4.6405 1.4274 -0.6744 
-4.5295 1.4136 -1.7085 
3.6108 -1.1025 -2.2191 
-4.1132 1.2511 -2.9522 
-3.6255 0.9714 -3.5202 
3.4392 -0.7967 -2.0247 
-3.3002 0.8110 -3.4872 
0.3805 0.9857 -14.5221 
-3.2770 0.7772 -3.1587 
-3.5190 0.8265 -3.2211 
-3.4055 1.0247 -1.6315 
0.2021 -0.1480 -14.2677 
0.3022 1.0944 -14.6350 
3.6928 -1.1701 -1.8461 
2.4214 -1.7654 -21.8767 
1.8412 -1.6544 -15.8097 
0.2621 1.1761 -14.7833 
1.9697 -1.2552 -16.0595 
3.6606 -1.1947 -1.9305 
1.9389 -1.1293 -14.9033 
0.2263 1.2328 -14.9978 
1.7589 -0.8771 -14.4211 
1.6499 -0.6782 -14.0047 
3.5634 -1.2000 -1.9453 
0.2179 1.2828 -15.1927 
1.5589 -0.5105 -13.7249 
1.4330 -0.3415 -13.5318 
0.3198 1.1848 -15.8183 
3.3793 -1.1565 -2.0068 
1.2968 -0.1777 -13.3912 
1.1687 -0.0262 -13.2913 
0.7213 1.1045 -15.4829 
3.0110 -1.0410 -2.0638 
1.0415 0.1204 -13.2296 
0.9032 0.2688 -13.1937 
0.3652 0.9861 -17.6935 
2.3910 -0.8392 -1.2422 
0.7613 0.4193 -13.1772 
2.5576 -0.2431 -10.4911 
0.6155 0.5733 -13.1807 
1.9433 -0.7175 -0.3645 
4.2554 -1.1703 -1.7366 
0.4631 0.7341 -13.2072 
0.3072 0.9022 -13.2627 
-8.5315 3.2745 0.3236 
-6.8323 2.6530 -1.2084 
3.7883 -1.0546 -2.8878 
-5.0302 1.7035 -2.9582 
-3.3403 1.0569 -2.9451 
-1.6902 0.4340 -1.7366 
-0.0652 -0.0725 -0.6702 
0.1461 1.0808 -13.3598 
1.5207 0.2071 1.9403 
3.2775 -2.3158 -11.7194 
5.3919 -4.2633 -19.2635 
3.7233 -1.0878 -2.4946 
3.5668 -2.6461 -12.6344 
-0.0228 1.2745 -13.5193 
3.2088 -1.9051 -13.6784 
2.7217 -1.4778 -12.7809 
-0.1922 1.4872 -13.7600 
2.3636 -1.0865 -12.6723 
3.6663 -1.1152 -2.3553 
2.1090 -0.8240 -12.5130 
-0.3568 1.7053 -14.1229 
1.8778 -0.6101 -12.4437 
3.5502 -1.1265 -2.0451 
1.6844 -0.4393 -12.3972 
-0.5200 1.9777 -14.6175 
1.5260 -0.3022 -12.3713 
1.3838 -0.1847 -12.3565 
3.3750 -1.0879 -1.5933 
-0.7276 2.1827 -15.3364 
1.2494 -0.0786 -12.3426 
1.1210 0.0197 -12.3238 
3.1881 -1.0499 -0.8267 
-0.5720 2.5091 -17.0012 
0.9963 0.1141 -12.3001 
-0.9606 2.3661 -17.4816 
0.8687 0.2092 -12.2701 
3.0905 -1.0454 -0.3155 
0.7354 0.3088 -12.2326 
1.4657 0.2902 -8.5263 
0.5938 0.4161 -12.1882 
3.7248 -1.0899 -1.9288 
0.4390 0.5361 -12.1394 
-11.1460 0.2546 -7.8755 
0.2656 0.6750 -12.0888 
-7.8978 0.2010 -6.9591 
-5.1955 0.1227 -6.3407 
-2.8388 0.0735 -5.8807 
3.7037 -0.9025 -3.1537 
-0.2765 0.0235 -5.5559 
2.7973 -0.0196 -5.4777 
6.3284 0.0034 -5.3435 
8.9581 -0.2189 -6.8446 
0.0685 0.8396 -12.0396 
4.4905 -0.3603 -8.8801 
3.7295 -0.9958 -2.9746 
4.0364 -0.1813 -9.4012 
3.1631 -0.1243 -10.3001 
-0.1603 1.0387 -12.0021 
2.6581 -0.1003 -10.7170 
2.2863 -0.0667 -11.1065 
3.9863 -1.1117 -2.9500 
-0.4325 1.2911 -11.9910 
1.9975 -0.0516 -11.3606 
1.7887 -0.0389 -11.5640 
-0.7644 1.6048 -12.0279 
1.6199 -0.0270 -11.7130 
4.4348 -1.3515 -2.4618 
1.4766 -0.0180 -11.8137 
-1.1490 2.0387 -12.1819 
1.3546 -0.0114 -11.8793 
4.8718 -1.5245 -1.4365 
1.2462 -0.0055 -11.9173 
-1.7767 2.6064 -12.1553 
1.1440 0.0003 -11.9289 
5.0480 -1.5581 -0.5667 
1.0434 0.0058 -11.9143 
-2.4423 3.5298 -13.1836 
0.9422 0.0111 -11.8747 
-2.8474 4.1486 -14.8266 
0.8366 0.0168 -11.8100 
0.7223 0.0231 -11.7180 
-0.9476 1.4633 -5.8793 
0.5955 0.0304 -11.5947 
0.5359 -0.6452 1.1880 
0.4516 0.0387 -11.4355 
1.9993 -0.4956 -1.3552 
0.2834 0.0486 -11.2351 
0.0808 0.0613 -10.9846 
3.5118 -1.1825 -1.9595 
-0.1688 0.0790 -10.6642 
5.0740 -1.7510 -2.3881 
-0.4817 0.0995 -10.2614 
6.7284 -2.6180 -0.9438 
-0.9044 0.1311 -9.7395 
-1.3704 0.1732 -9.0291 
8.2773 -3.1768 0.3172 
-2.0304 0.2505 -8.1388 
-3.5735 0.3463 -7.0354 
-5.4512 0.1468 -5.0276 
-2.5640 -0.0400 -4.3518 
0.3219 -0.0251 -4.6496 
2.8293 -0.0819 -4.9571 
5.0646 -0.1254 -5.4743 
7.5485 -0.1964 -6.1116 
10.4822 -0.2441 -7.0103 </DataArray>
            <DataArray Name="stress" NumberOfComponents="3" format="ascii" type="Float64">
0.0333 0.3145 -0.0219 
0.1030 0.5478 -0.0141 
0.1804 0.9539 -0.0208 
0.2127 1.3106 -0.0353 
0.2689 1.6612 -0.0655 
-0.0710 -0.0689 -0.0050 
-0.0814 -0.1134 -0.0038 
-0.1308 -0.1934 -0.0104 
0.3486 1.9954 -0.0873 
-0.1920 -0.2552 -0.0100 
-0.2295 -0.3053 -0.0032 
0.4245 2.3222 -0.0897 
-0.2452 -0.3452 0.0006 
0.4461 2.6382 -0.0904 
-0.2684 -0.3802 -0.0060 
-0.0124 0.0137 0.0038 
0.3801 2.9337 -0.1374 
-0.3167 -0.4048 -0.0166 
-0.0044 0.0229 0.0057 
0.0062 0.0377 0.0112 
0.0120 0.0470 0.0167 
0.0213 0.0505 0.0229 
-0.4318 -0.4044 -0.0168 
0.2089 3.1466 -0.2825 
0.0300 0.0486 0.0277 
-0.7048 -0.3494 -0.0167 
0.1269 3.2107 -0.5068 
0.0401 0.0449 0.0349 
0.0127 0.0336 0.0422 
-1.0096 -0.1785 -0.1045 
0.1880 3.1230 -0.6935 
0.0562 0.0134 0.0789 
-1.1725 0.0265 -0.3661 
0.1714 2.9325 -0.8142 
-0.0104 -0.0027 -0.0008 
-0.0140 -0.0053 -0.0003 
-0.2967 -0.0349 0.1474 
-0.0163 -0.0091 -0.0003 
-0.0171 -0.0120 -0.0005 
-1.0504 0.1353 -0.7219 
-0.0199 -0.0137 -0.0014 
-1.9901 -0.1823 -0.0576 
0.1126 2.6540 -0.9284 
-0.0182 -0.0136 -0.0007 
-0.0339 -0.0150 -0.0062 
-0.7389 0.1605 -0.9966 
-2.7000 -0.4186 -0.5598 
0.0158 -0.0086 0.0050 
0.0334 2.2394 -1.0617 
-0.0515 -0.0110 -0.0209 
-1.5135 -0.5215 -0.7849 
-0.5157 0.2222 -1.1254 
-1.5713 -0.1296 -0.3980 
-0.0207 1.6682 -1.1949 
-0.6177 -0.3447 -0.6368 
-0.2746 0.4218 -1.1488 
-3.6172 -0.2855 -0.8808 
-0.0084 0.0006 0.0004 
0.0550 1.0018 -1.2379 
-0.0078 0.0012 0.0005 
-0.2811 -0.0796 -0.4610 
-0.0074 0.0021 0.0012 
-2.5585 -0.2108 -0.7338 
-0.0083 0.0029 0.0018 
-0.0046 0.0034 0.0035 
0.0590 0.7084 -1.1359 
-0.0172 0.0026 0.0007 
-0.5017 -0.0276 -0.2249 
0.1588 0.3650 -1.1241 
-0.0651 0.1548 -0.3666 
0.0358 0.0065 0.0166 
0.3744 0.9620 -1.1294 
-0.1056 -0.0067 -0.0162 
-0.0625 0.0545 0.0115 
0.0901 0.3573 -0.3552 
-1.5258 -0.1104 -0.3972 
0.2554 -0.1082 -0.8766 
-3.4540 -0.2113 -0.8639 
0.6324 1.0786 -1.1129 
-0.0018 0.0408 0.0401 
0.2374 0.5700 -0.4236 
-2.8000 -0.1161 -0.6464 
0.3394 -0.3451 -0.5536 
0.0117 0.0103 0.0398 
0.8114 0.9961 -1.0433 
-0.6033 0.0056 -0.1017 
0.4457 0.8372 -0.5648 
-0.0007 -0.0197 0.0368 
0.4652 -0.2276 -0.2017 
-0.0065 -0.0001 0.0001 
0.1343 0.0153 0.0425 
-0.0065 -0.0002 0.0006 
-0.0071 -0.0003 0.0011 
-0.0046 -0.0002 0.0025 
0.9416 0.6864 -0.8899 
-0.0149 -0.0002 0.0003 
0.0247 0.0013 0.0122 
0.0091 -0.0008 -0.0089 
0.7366 1.1643 -0.7717 
-0.0094 -0.0489 0.0387 
-0.1317 -0.0105 -0.0337 
0.2891 -0.0586 0.0702 
-1.5351 -0.0914 -0.3974 
0.0051 0.0018 -0.0144 
0.8537 0.2702 -0.6032 
-3.3948 -0.1770 -0.8379 
1.1383 1.5178 -1.0273 
0.0030 -0.0758 0.0340 
-2.7623 -0.1244 -0.6668 
0.0010 0.0092 -0.0146 
-0.0867 0.0010 0.0932 
0.4325 -0.0711 -0.2233 
-0.6364 -0.0168 -0.1676 
1.5536 1.7714 -1.2749 
0.0470 -0.0848 0.0016 
0.0026 0.0168 -0.0143 
0.0725 0.0131 -0.0002 
-0.0802 0.0795 -0.0132 
0.1373 -0.0383 -0.0919 
-0.0181 0.0133 -0.0150 
0.0036 0.0244 -0.0144 
0.1249 -0.1952 0.0508 
1.5474 1.7340 -1.3654 
-0.0001 0.0162 -0.0051 
0.0025 0.0567 -0.0535 
-0.0034 0.0000 0.0003 
-0.0041 0.0000 0.0006 
-0.0020 0.0001 0.0019 
0.0022 0.0321 -0.0119 
0.3446 0.1374 -0.2973 
-0.0111 -0.0001 -0.0000 
0.0233 -0.0020 0.0096 
0.0011 -0.1373 0.1284 
1.0751 1.3260 -1.1978 
0.0024 0.0150 -0.0031 
-0.1266 -0.0045 -0.0303 
-1.4724 -0.0549 -0.3562 
-0.0082 0.0362 -0.0042 
0.0263 0.0164 -0.0366 
0.0022 0.0126 -0.0034 
-3.3537 -0.1408 -0.7814 
0.6414 0.5143 -0.6326 
-2.8493 -0.1313 -0.6605 
0.6917 0.7173 -0.8522 
-0.0660 -0.0404 0.0898 
0.0046 0.0102 -0.0024 
-0.0320 0.0274 0.0135 
-0.7081 -0.0238 -0.1822 
0.8739 1.0560 -0.9986 
0.0197 -0.0089 -0.0106 
0.0665 0.0236 0.0066 
-0.0008 0.0072 -0.0019 
0.4876 0.2053 -0.4498 
-0.0479 0.0202 0.0275 
-0.0048 0.0238 -0.0065 
-0.0590 -0.0088 0.0456 
1.2071 1.6055 -1.3007 
0.0073 0.0221 -0.0055 
-0.0100 0.0014 -0.0068 
0.0044 -0.0145 0.0038 
0.2218 -0.0708 -0.1251 
-0.0373 -0.0791 0.0749 
0.0041 0.0208 -0.0076 
-0.0123 0.0346 -0.0069 
-0.0010 -0.0065 -0.0127 
1.5663 1.8902 -1.4610 
0.0039 0.0208 -0.0082 
-0.0014 0.0000 -0.0000 
-0.0005 -0.0109 0.0075 
-0.0010 -0.0001 0.0007 
0.0465 -0.1546 0.0531 
-0.0047 -0.0003 -0.0004 
0.0074 -0.0012 0.0056 
0.0565 -0.1363 0.0270 
-0.0255 0.0092 -0.0110 
0.0189 -0.0090 -0.0100 
-0.0004 0.0269 -0.0162 
0.0049 0.0211 -0.0070 
-1.3030 -0.0128 -0.2748 
1.4093 1.7004 -1.3511 
-3.3482 -0.1138 -0.7111 
-0.0096 0.0194 -0.0112 
0.1718 -0.1559 -0.0695 
-3.0154 -0.1446 -0.6706 
0.0382 0.0068 0.0036 
-0.0037 -0.0054 0.0067 
-0.8558 -0.0418 -0.2074 
0.0027 -0.1055 0.0687 
0.0069 0.0147 -0.0148 
0.0144 0.0194 -0.0128 
0.0667 0.0203 0.0066 
0.9961 1.2324 -1.0543 
0.3752 0.0536 -0.3529 
0.0424 0.0505 0.0276 
0.0000 0.0206 -0.0056 
0.0512 0.0311 0.0102 
-0.0044 -0.0009 0.0035 
0.0029 0.0196 -0.0067 
-0.0313 -0.0543 0.0632 
0.0086 0.0044 -0.0082 
0.6683 0.7433 -0.7375 
0.0022 0.0213 -0.0060 
0.0142 0.1170 0.0611 
0.5924 0.5132 -0.7884 
0.0087 0.0584 0.0317 
0.0028 0.0228 -0.0050 
-0.0032 0.0011 0.0004 
-0.0411 -0.0107 0.0340 
-0.0714 0.0748 0.0024 
-0.0193 0.1839 0.1038 
0.0064 -0.0006 -0.0014 
-0.0038 0.0234 -0.0061 
0.4398 0.3501 -0.4556 
0.8299 1.0133 -1.2006 
-0.0084 0.0225 -0.0128 
-0.1537 0.0292 -0.0939 
-0.0001 0.0011 -0.0010 
-0.0023 0.0001 -0.0001 
-0.0324 0.0099 0.0035 
-0.3734 0.1491 0.0818 
0.0008 -0.0003 -0.0004 
-0.0131 -0.0001 -0.0010 
0.0617 -0.0012 0.0043 
0.0556 0.0308 0.0040 
-0.0004 -0.0010 0.0016 
-0.8668 -0.0291 -0.1754 
1.0410 1.2769 -1.4183 
0.2932 0.0916 -0.2172 
-3.1432 -0.1326 -0.5862 
-0.2402 -0.1225 -0.2515 
-3.4170 -0.1702 -0.6366 
-0.0404 0.0352 0.0073 
-1.1414 -0.0336 -0.2399 
-0.8070 -0.0258 -0.1444 
-0.0004 0.0108 -0.0106 
0.0718 0.0582 -0.0071 
0.0012 0.0004 -0.0006 
1.2031 1.2604 -1.4282 
-0.0030 0.0001 0.0005 
0.0049 0.0550 -0.0071 
-0.3623 -0.4056 -0.4595 
0.1717 -0.0227 -0.0416 
-0.3957 -0.0331 -0.1441 
0.0031 0.0506 -0.0112 
-0.4745 -0.1765 -0.5347 
-0.7186 -0.2585 -0.4592 
0.0040 0.0482 -0.0095 
-0.5759 -0.8165 -0.7279 
0.0130 0.0049 -0.0061 
0.0001 -0.0000 -0.0001 
1.2995 1.0242 -1.2586 
0.0089 -0.0324 0.0319 
0.0007 0.0443 -0.0121 
0.0001 0.0007 -0.0006 
-0.8790 -0.6319 -0.8009 
0.1906 -0.1595 -0.9080 
-0.0011 0.0388 -0.0166 
-1.0319 -1.2494 -0.9740 
1.2869 0.6592 -0.9361 
0.0301 0.0358 -0.0111 
0.0008 0.0016 -0.0009 
-0.8948 -1.0453 -1.0585 
-0.0001 -0.0001 -0.0001 
-0.0530 -0.0091 0.0146 
0.7604 0.0236 -1.2200 
0.0006 0.0006 -0.0005 
0.0667 0.0419 0.0204 
-1.3275 -1.4634 -0.9530 
-0.8469 -1.3649 -1.1859 
-0.3109 0.0047 -0.0728 
0.9806 0.2881 -0.5015 
-0.0009 0.0012 -0.0012 
0.0018 0.0002 0.0008 
0.0001 -0.0001 -0.0000 
-0.0168 -0.0006 -0.0031 
1.4536 0.2519 -1.4426 
0.0518 0.0026 0.0090 
0.0006 0.0027 -0.0081 
-0.8983 -1.3938 -0.6876 
-0.3686 -0.0224 -0.0840 
0.0002 0.0004 -0.0003 
-2.4343 -0.0777 -0.3949 
-0.7937 -1.4826 -1.1835 
-1.2567 -0.1682 -0.4700 
-3.8156 -0.0926 -0.5341 
-1.9854 -0.0944 -0.2627 
0.4000 0.0541 -0.1252 
-0.1018 -0.1111 -0.0135 
-2.0194 -0.4398 -1.0155 
-0.6020 -1.3101 -1.0031 
0.0014 0.0010 -0.0015 
-0.3934 -1.2663 -0.4933 
0.0233 -0.1227 0.0169 
2.1513 0.4341 -1.5007 
0.0000 -0.0001 0.0000 
0.0107 0.0015 -0.0053 
-0.0246 -0.1122 0.0069 
-2.0179 -0.6384 -1.4120 
0.0003 0.0002 -0.0002 
-0.0051 -0.0994 0.0098 
-0.3984 -0.9073 -0.6251 
-0.0004 -0.0123 0.0164 
-0.0338 -1.1086 -0.4811 
-0.0030 -0.0862 0.0111 
2.5032 0.4974 -1.3534 
-1.4548 -0.6549 -1.5327 
0.0011 0.0006 -0.0011 
0.0013 0.0002 -0.0022 
0.0108 -0.0692 0.0207 
0.0000 -0.0001 0.0000 
-0.2820 -0.5622 -0.2775 
0.0002 0.0001 -0.0001 
-0.7395 -0.4956 -1.4043 
0.0200 -0.0428 0.0409 
0.5602 -0.8932 -0.6451 
-0.0277 -0.0057 0.0062 
2.2009 0.3704 -0.9310 
-0.1157 -0.0246 0.0130 
-0.0256 -0.2648 -1.0958 
0.0012 0.0003 -0.0008 
-0.1144 -0.3785 -0.1131 
0.0033 0.0003 -0.0021 
-0.0000 -0.0000 0.0000 
-0.7143 -0.0897 -0.2386 
0.0001 0.0000 -0.0000 
1.7849 -0.6445 -0.8635 
-1.9883 -0.2714 -0.7477 
0.0112 -0.0003 -0.0038 
0.8409 -0.0523 -0.5737 
1.1143 0.1475 -0.3666 
-0.0834 -0.3095 -0.0568 
0.0010 0.0001 -0.0004 
-3.0974 -0.4026 -1.2215 
0.0030 0.0001 -0.0014 
2.9457 -0.4096 -0.9424 
0.0057 -0.0004 -0.0001 
-0.0001 -0.0000 0.0000 
1.0027 0.1324 -0.0188 
-0.0336 0.0008 -0.0003 
0.1158 -0.0025 -0.0004 
-0.8006 0.0336 -0.0007 
-0.0001 -0.0000 0.0000 
-3.1273 0.2123 0.0082 
-2.9510 -0.3615 -1.3811 
0.1525 0.0171 -0.0398 
-0.0647 -0.2839 -0.0132 
-3.3409 0.5584 0.0433 
0.0037 -0.0007 -0.0013 
-1.2847 0.8578 0.0039 
0.2835 0.1714 0.1515 
-0.0070 0.9576 -0.1150 
-1.7987 -0.1548 -1.1908 
0.0007 -0.0000 -0.0001 
0.1455 0.8985 -0.1429 
3.4137 -0.1789 -0.8979 
0.0032 0.0000 -0.0007 
0.1284 0.8224 -0.1109 
-0.0163 -0.2738 -0.0116 
-0.6999 0.1484 -0.8532 
-0.0210 -0.0035 0.0070 
0.0231 0.1188 0.0515 
0.0055 -0.0002 -0.0012 
0.0923 0.7564 -0.0927 
0.0566 0.6924 -0.0926 
3.0446 -0.0031 -0.6457 
-0.0698 0.4037 -0.6373 
0.0031 0.0000 -0.0002 
-0.0421 0.6131 -0.1350 
0.8478 -0.2340 -0.1912 
0.0503 0.0719 0.0056 
-0.4165 0.4686 -0.3109 
0.0116 -0.0002 -0.0015 
0.0055 -0.0001 -0.0006 
0.4565 0.5608 -0.6483 
-1.2174 0.2042 -0.7022 
1.2254 0.0307 -0.2185 
0.0238 0.0481 0.0072 
2.8505 -0.1647 -0.4058 
1.7106 0.5583 -0.7946 
-2.3182 -0.1213 -1.1637 
0.0048 -0.0005 0.0003 
0.0062 0.0000 -0.0002 
-3.1218 -0.3359 -1.3708 
0.0215 0.0411 -0.0008 
2.3496 0.3313 -0.7168 
-0.0372 0.0036 -0.0030 
3.8619 -0.1196 -0.3912 
-2.9861 -0.3624 -1.1655 
1.0856 0.0224 -0.2991 
0.0071 -0.0001 -0.0001 
-0.0225 0.0380 0.0071 
-1.7753 -0.2143 -0.6799 
-0.0015 0.0002 -0.0010 
-0.0187 -0.0004 0.0025 
3.9965 -0.0695 -0.3066 
0.0474 0.0024 -0.0113 
-0.3583 -0.0208 0.0856 
0.0140 -0.0010 0.0019 
-2.2653 -0.1041 0.4217 
-3.1165 -0.1031 0.7047 
-0.5019 -0.0259 -0.2367 
0.0673 -0.0777 0.0314 
-2.0865 -0.0172 0.6636 
0.0506 0.0401 -0.0181 
-1.0947 0.1549 0.3892 
0.0075 0.0000 0.0000 
-0.0239 0.0686 -0.0648 
-0.5571 0.3300 0.0550 
2.4246 -0.0153 -0.1966 
-0.4042 0.4008 -0.2268 
0.0037 0.0001 0.0005 
-0.0767 -0.0301 0.0590 
-0.4173 0.3441 -0.4594 
0.0563 0.1097 -0.0706 
2.2242 0.0655 -0.1613 
-0.6038 0.1775 -0.7106 
-1.0565 -0.1050 -1.0488 
0.2325 0.0009 -0.0431 
-0.0349 0.0117 0.0089 
0.0918 0.1736 -0.1217 
0.0066 -0.0001 0.0004 
-1.7516 -0.4486 -1.4223 
4.1128 0.0669 -0.2662 
0.6441 0.3393 -0.3536 
-2.4168 -0.6896 -1.6188 
-0.0072 0.0194 -0.0044 
-0.0341 0.0007 0.0078 
-2.5506 -0.6908 -1.4646 
1.9331 0.6077 -0.8421 
0.0066 0.0001 0.0001 
4.1175 0.0498 -0.2599 
-1.9813 -0.4490 -0.9874 
0.0398 0.0182 -0.0024 
-1.0793 -0.1580 -0.4118 
2.3275 0.6994 -1.1239 
0.0130 -0.0000 -0.0006 
3.0291 0.0190 -0.1925 
-0.1165 0.0189 -0.0021 
-0.2579 -0.0101 -0.0446 
1.4070 0.4061 -0.8367 
0.0591 0.0099 0.0279 
-0.0062 -0.0000 0.0003 
-0.0006 0.0001 0.0010 
0.0026 0.0001 0.0008 
-0.0179 0.0009 0.0031 
0.0757 0.0014 -0.0046 
-0.8659 -0.0499 0.1061 
0.7670 -0.0023 -0.0636 
1.4944 0.0397 -0.0835 
-2.4673 -0.1811 0.3213 
0.5943 0.0371 -0.3531 
0.0105 -0.0052 0.0039 
-2.6833 -0.3868 0.3515 
-2.1826 -0.6207 0.1789 
-1.8944 -0.8273 -0.1075 
-0.0090 -0.0151 0.0046 
0.0057 0.0000 -0.0000 
0.1611 -0.1528 -0.0684 
-1.7075 -0.9742 -0.4710 
3.8238 0.0559 -0.2306 
-0.0972 0.0014 0.0038 
-1.7624 -1.0882 -0.8716 
-0.0251 -0.0305 0.0167 
-1.9495 -1.2012 -1.2675 
0.0055 -0.1820 0.0069 
-2.0053 -1.2262 -1.4806 
4.1189 0.0598 -0.3069 
-0.0783 -0.0599 0.0507 
0.0260 -0.0001 -0.0004 
-1.8371 -1.0154 -1.3459 
-0.0257 -0.1730 -0.0051 
-1.4384 -0.6084 -0.9260 
0.2634 -0.0464 -0.0301 
3.4702 0.0435 -0.2645 
-0.8444 -0.2262 -0.4340 
-0.0018 0.0001 0.0004 
-0.2887 -0.0248 -0.0901 
-0.0173 -0.1729 0.0043 
1.0369 0.1442 -0.4386 
1.4335 0.0104 -0.1173 
0.0148 0.0164 0.0163 
1.5580 0.5021 -0.9781 
1.2489 -0.1540 0.0542 
0.0057 -0.0000 -0.0000 
0.0449 0.0073 -0.0038 
-0.0090 0.0033 -0.0157 
1.5794 0.7139 -1.2152 
-0.0614 0.0019 -0.0091 
3.2543 -0.1193 -0.0001 
-0.0002 0.0063 -0.0107 
-0.0084 -0.0002 -0.0007 
-0.0031 -0.0010 -0.0021 
-0.0352 -0.0055 -0.0092 
0.1083 -0.0031 0.0043 
-0.6838 -0.0083 -0.0492 
1.1052 0.5048 -1.0493 
-2.5398 -0.0913 -0.2337 
-3.1612 -0.2484 -0.4102 
0.0179 -0.0002 0.0018 
0.0030 0.0088 -0.0111 
-2.9304 -0.4209 -0.5599 
3.7580 -0.0657 -0.1570 
-2.8956 -0.5681 -0.7404 
0.7136 0.1282 -0.7105 
-2.9311 -0.7064 -0.9788 
0.0052 0.0124 -0.0137 
-2.7210 -0.7854 -1.1761 
-0.0002 0.0001 -0.0005 
3.7052 -0.0199 -0.2309 
-1.9327 -0.6590 -1.0600 
0.0147 0.0184 -0.0209 
0.5314 -0.1608 -0.3592 
-1.0352 -0.3322 -0.6416 
-0.4628 -0.0559 -0.2313 
-0.0458 0.0160 -0.0067 
0.0046 -0.0000 0.0002 
2.1340 0.0005 -0.1428 
0.6617 -0.2919 -0.0355 
-0.1430 0.0440 -0.0081 
-0.0498 -0.0095 0.0347 
0.0318 0.0336 0.0392 
1.5977 -0.2881 0.1899 
0.0545 0.0077 0.0069 
0.1403 0.0008 -0.0254 
0.2251 -0.0015 -0.0344 
-0.0003 -0.0005 -0.0124 
2.7155 -0.2431 0.2124 
-0.0070 0.0012 -0.0077 
0.6467 0.1769 -0.3374 
-0.0208 0.0000 0.0040 
0.0047 0.0021 -0.0055 
0.9714 0.5456 -0.7340 
3.1431 -0.1816 0.0951 
0.0016 0.0018 -0.0067 
0.0092 -0.0000 -0.0010 
0.0088 0.0010 0.0037 
0.0055 0.0042 0.0081 
0.0744 0.0227 0.0452 
1.2858 0.9071 -1.0011 
-0.2586 0.0119 -0.0376 
0.0003 0.0015 -0.0066 
-1.9779 -0.1019 -0.4083 
-3.4307 -0.2524 -0.7764 
3.6037 -0.1070 0.0013 
-3.5095 -0.3482 -0.9061 
-3.4424 -0.4022 -0.9636 
-0.0010 0.0009 -0.0060 
0.0010 0.0000 0.0004 
-3.5805 -0.4441 -1.0714 
1.7509 0.9992 -0.9920 
-3.1577 -0.4123 -1.0497 
2.4582 -0.0289 -0.0246 
-0.0045 0.0000 -0.0041 
-1.7260 -0.2192 -0.6532 
-0.4954 -0.0121 -0.1585 
2.2188 0.8269 -0.6976 
0.0082 0.0005 -0.0065 
-0.0338 0.0395 0.0436 
0.0601 0.0097 0.0304 
0.3345 -0.0022 -0.0097 
2.5227 0.5814 -0.3660 
0.0109 0.0059 -0.0158 
0.0312 -0.0075 -0.0066 
-0.0051 -0.0056 -0.0156 
-0.0474 0.0042 -0.0026 
-0.0551 0.0002 0.0009 
-0.0086 -0.0001 -0.0086 
2.8219 0.3745 -0.1799 
0.0034 0.0017 -0.0050 
-0.0654 -0.0255 0.0422 
0.0179 -0.0000 -0.0006 
3.0508 0.2138 -0.0896 
0.0039 0.0017 -0.0064 
0.0763 -0.0634 0.0359 
0.0010 0.0016 -0.0069 
3.5515 0.0979 -0.0501 
0.0012 0.0019 -0.0067 
-0.0014 0.0001 -0.0000 
0.2976 -0.0169 -0.1323 
0.0010 0.0021 -0.0067 
-0.0639 -0.0048 -0.0166 
2.5171 0.0321 -0.0311 
-0.0848 -0.0211 -0.0471 
-0.3765 -0.1143 -0.2227 
0.9431 0.1989 -0.5183 
-1.7350 -0.2944 -0.6132 
-3.3684 -0.4145 -0.9377 
0.0008 0.0024 -0.0068 
-3.7577 -0.4108 -0.9790 
-3.6278 -0.3692 -0.9494 
-3.7551 -0.3371 -0.9962 
-3.2287 -0.2615 -0.8800 
0.0011 0.0027 -0.0070 
2.4436 0.4462 -0.8814 
0.4277 0.0033 -0.0097 
-1.5476 -0.1056 -0.4149 
-0.1760 -0.0001 -0.0207 
-0.0021 0.0028 -0.0064 
0.0910 0.0038 0.0251 
3.3337 0.5052 -0.8969 
0.0075 -0.0068 -0.0169 
-0.0625 -0.0005 0.0009 
-0.0038 0.0018 -0.0039 
-0.0122 -0.0006 -0.0127 
3.3390 0.4365 -0.7208 
-0.0043 0.0030 -0.0049 
0.0085 0.0020 -0.0059 
0.0034 0.0025 -0.0035 
0.0192 -0.0004 0.0010 
0.0039 0.0014 -0.0052 
3.3924 0.3332 -0.5815 
0.0137 0.0082 -0.0149 
0.0012 0.0010 -0.0061 
-0.0049 -0.0001 0.0006 
-0.0145 0.0164 -0.0147 
0.0011 0.0011 -0.0060 
3.7020 0.2132 -0.4912 
0.0014 0.0012 -0.0060 
-0.0640 0.0047 0.0245 
0.0012 0.0013 -0.0061 
3.0732 0.0976 -0.3300 
-0.0236 -0.0203 0.0496 
0.0010 0.0014 -0.0061 
0.9116 0.0195 -0.0895 
0.0008 0.0014 -0.0061 
-0.7406 0.0152 -0.0884 
-1.0261 -0.0369 -0.3280 
1.0270 0.0205 -0.2066 
-1.7466 -0.1115 -0.7519 
-2.8420 -0.1627 -0.9853 
-3.4381 -0.1450 -0.9741 
-3.5782 -0.1439 -0.9239 
0.0005 0.0015 -0.0059 
-3.7899 -0.1831 -0.9673 
-3.2073 -0.1806 -0.8353 
-0.1226 -0.0003 0.0048 
-1.4435 -0.0833 -0.3716 
2.9443 0.1482 -0.6455 
0.0009 0.0016 -0.0059 
-0.1025 -0.0029 -0.0255 
0.0582 0.0036 0.0028 
-0.0249 0.0006 -0.0132 
3.7357 0.2339 -0.8158 
0.0364 0.0023 -0.0067 
0.0012 0.0019 -0.0062 
0.0007 0.0029 -0.0025 
0.0037 0.0013 -0.0040 
-0.0016 0.0018 -0.0056 
3.6736 0.2559 -0.7819 
0.0023 0.0004 -0.0057 
0.0017 0.0003 -0.0017 
0.0008 0.0005 -0.0061 
-0.0025 0.0004 -0.0035 
0.0007 0.0007 -0.0058 
3.7948 0.2518 -0.7761 
0.0022 -0.0016 -0.0027 
0.0013 0.0009 -0.0057 
0.0013 0.0009 -0.0057 
3.8339 0.2114 -0.7233 
0.0202 0.0010 -0.0130 
0.0011 0.0010 -0.0058 
0.0011 0.0011 -0.0058 
-0.0156 0.0045 -0.0104 
2.2890 0.1101 -0.4251 
0.0010 0.0012 -0.0058 
-0.0260 0.0086 -0.0154 
0.0009 0.0013 -0.0058 
0.3115 0.0078 -0.0600 
-2.3626 0.0178 -0.1442 
1.3164 0.0486 -0.2541 
0.0009 0.0014 -0.0058 
-2.5868 -0.0352 -0.4067 
-2.9628 -0.0780 -0.7608 
-3.2215 -0.0983 -0.9122 
-3.4520 -0.1588 -1.0226 
-3.7039 -0.2420 -1.1074 
-0.0720 -0.0105 0.0357 
-3.0656 -0.2381 -0.9078 
0.0007 0.0014 -0.0057 
-1.3195 -0.1075 -0.3765 
-0.0891 -0.0076 -0.0266 
3.2975 0.1173 -0.6054 
0.0413 0.0036 0.0023 
0.0006 0.0014 -0.0056 
-0.0171 0.0000 -0.0092 
-0.0100 -0.0006 0.0038 
0.0074 0.0006 -0.0042 
3.8253 0.1645 -0.7133 
0.0006 -0.0001 -0.0067 
0.0013 0.0014 -0.0057 
0.0005 0.0003 -0.0061 
0.0009 0.0004 -0.0056 
0.0014 0.0017 -0.0061 
3.7013 0.2039 -0.7090 
0.0013 0.0005 -0.0055 
0.0014 0.0005 -0.0055 
0.0010 0.0021 -0.0063 
3.8679 0.2492 -0.7850 
0.0012 0.0005 -0.0055 
-0.0054 0.0015 -0.0034 
0.0012 0.0006 -0.0054 
3.4213 0.2767 -0.8074 
0.0012 0.0007 -0.0054 
0.0137 0.0007 -0.0061 
0.0011 0.0008 -0.0054 
1.7058 0.2022 -0.5606 
-0.0323 -0.0021 0.0052 
0.0010 0.0009 -0.0054 
0.0009 0.0010 -0.0054 
0.1431 0.0101 -0.0505 
0.3787 0.0605 -0.1905 
0.0009 0.0011 -0.0054 
-4.6993 -0.1348 -0.2550 
-4.5659 -0.1082 -0.6383 
1.8120 0.0624 -0.3643 
-4.1422 -0.1352 -1.0999 
-3.6971 -0.2668 -1.3185 
0.1931 0.0047 -0.0375 
-3.4510 -0.3303 -1.3066 
0.0008 0.0012 -0.0054 
-2.6386 -0.2641 -0.9114 
-0.9939 -0.0994 -0.3081 
-0.0201 -0.0026 -0.0052 
0.0378 0.0028 0.0008 
0.0008 0.0013 -0.0055 
3.5604 0.0765 -0.6902 
-0.0117 -0.0020 -0.0099 
0.0065 -0.0009 -0.0054 
0.0006 0.0014 -0.0055 
-0.0000 -0.0008 -0.0064 
3.7466 0.0294 -0.7398 
0.0018 -0.0004 -0.0054 
0.0006 0.0014 -0.0055 
0.0018 -0.0003 -0.0053 
0.0017 -0.0002 -0.0053 
3.5361 -0.0168 -0.7215 
0.0007 0.0014 -0.0056 
0.0015 -0.0000 -0.0052 
0.0015 0.0001 -0.0051 
0.0026 0.0014 -0.0064 
3.4010 -0.0249 -0.7673 
0.0014 0.0003 -0.0050 
0.0013 0.0004 -0.0050 
-0.0032 0.0016 -0.0057 
2.7785 -0.0065 -0.7453 
0.0012 0.0005 -0.0050 
0.0011 0.0006 -0.0049 
0.0153 0.0020 -0.0095 
1.8424 0.0054 -0.4254 
0.0010 0.0008 -0.0049 
-0.0578 -0.0019 0.0082 
0.0009 0.0009 -0.0049 
1.3772 -0.0160 -0.1461 
0.3432 0.0267 -0.0960 
0.0008 0.0010 -0.0050 
0.0007 0.0011 -0.0050 
-8.3661 0.4846 0.1217 
-6.6926 0.4225 -0.4534 
2.0510 0.1238 -0.5195 
-5.0184 0.0301 -1.1125 
-3.3901 -0.0633 -1.0983 
-1.6185 -0.1462 -0.6853 
-0.1469 -0.0749 -0.1772 
0.0006 0.0013 -0.0050 
0.1109 -0.0079 0.0092 
0.0190 0.0016 -0.0007 
-0.0072 -0.0039 -0.0091 
3.5799 0.1768 -0.8982 
0.0069 -0.0013 -0.0043 
0.0005 0.0014 -0.0051 
0.0016 -0.0010 -0.0053 
0.0030 -0.0006 -0.0047 
0.0004 0.0016 -0.0052 
0.0022 -0.0004 -0.0048 
3.7667 0.1260 -0.9037 
0.0020 -0.0001 -0.0047 
0.0003 0.0018 -0.0053 
0.0019 0.0000 -0.0047 
3.5557 0.0611 -0.7607 
0.0017 0.0001 -0.0046 
-0.0002 0.0020 -0.0054 
0.0016 0.0002 -0.0046 
0.0015 0.0003 -0.0046 
3.4370 0.0338 -0.6037 
0.0009 0.0022 -0.0058 
0.0014 0.0004 -0.0046 
0.0013 0.0004 -0.0046 
3.2790 0.0035 -0.3159 
-0.0027 0.0023 -0.0055 
0.0012 0.0005 -0.0046 
0.0120 0.0033 -0.0103 
0.0011 0.0006 -0.0046 
3.1567 -0.0276 -0.1142 
0.0009 0.0006 -0.0046 
-0.0617 -0.0028 0.0108 
0.0008 0.0007 -0.0046 
0.3148 0.0336 -0.0974 
0.0007 0.0008 -0.0046 
-12.4438 -3.8930 -2.9524 
0.0006 0.0009 -0.0045 
-8.8129 -2.7365 -2.6119 
-5.7839 -1.8062 -2.3665 
-3.2241 -1.0002 -2.2520 
1.9584 0.1552 -0.5575 
-0.0098 0.0111 -1.8493 
1.3231 0.4437 -0.6847 
0.0943 0.0493 0.0296 
-0.0263 -0.0076 -0.0123 
0.0004 0.0010 -0.0045 
0.0165 0.0039 -0.0007 
3.5863 0.2658 -1.0408 
0.0013 0.0007 -0.0041 
0.0044 0.0012 -0.0037 
0.0002 0.0011 -0.0045 
0.0027 0.0008 -0.0041 
0.0026 0.0008 -0.0041 
4.1190 0.2469 -1.1214 
-0.0000 0.0013 -0.0045 
0.0022 0.0007 -0.0043 
0.0020 0.0006 -0.0043 
-0.0002 0.0015 -0.0045 
0.0018 0.0006 -0.0044 
4.4607 0.1439 -0.9187 
0.0017 0.0005 -0.0044 
-0.0007 0.0019 -0.0045 
0.0015 0.0005 -0.0045 
4.8922 0.1145 -0.5381 
0.0014 0.0005 -0.0045 
-0.0004 0.0024 -0.0048 
0.0013 0.0004 -0.0045 
5.0775 0.1425 -0.2131 
0.0012 0.0004 -0.0045 
-0.0040 0.0027 -0.0037 
0.0011 0.0004 -0.0045 
0.0118 0.0051 -0.0100 
0.0009 0.0003 -0.0044 
0.0008 0.0003 -0.0044 
-0.0656 -0.0039 0.0162 
0.0007 0.0003 -0.0043 
0.0759 0.0296 -0.0580 
0.0005 0.0002 -0.0043 
1.5742 0.0518 -0.3802 
0.0003 0.0002 -0.0042 
0.0001 0.0001 -0.0041 
3.5934 0.0179 -0.7639 
-0.0001 0.0000 -0.0040 
5.0345 -0.0747 -0.8892 
-0.0006 -0.0001 -0.0039 
6.5969 -0.4210 -0.3558 
-0.0007 -0.0001 -0.0036 
-0.0027 -0.0007 -0.0036 
8.1225 -0.4712 0.1198 
0.0030 0.0010 -0.0021 
-0.0279 -0.0074 -0.0073 
0.1032 0.0261 0.0197 
-0.5900 -0.1966 -0.1667 
0.0684 0.0044 -1.1909 
3.1747 0.9778 -1.9530 
5.6446 1.7563 -2.0315 
8.4176 2.6105 -2.2967 
11.6988 3.6562 -2.6268 </DataArray>
            <DataArray Name="u" NumberOfComponents="2" format="ascii" type="Float64">
-12.8857 -33.9954 
-11.5044 -33.5556 
-10.2942 -33.0465 
-9.2320 -32.6968 
-8.2837 -32.4307 
-12.6053 -28.1834 
-11.2799 -28.3485 
-10.1129 -28.5533 
-7.4350 -32.1638 
-9.0853 -28.6882 
-8.1534 -28.7848 
-6.6840 -31.8698 
-7.3047 -28.8781 
-6.0248 -31.5769 
-6.5486 -28.9769 
-9.5051 -27.5806 
-5.4445 -31.3532 
-5.8952 -29.0700 
-9.3379 -27.3560 
-8.8622 -27.2276 
-8.3246 -27.1626 
-7.7777 -27.1476 
-5.3282 -29.1319 
-4.9281 -31.2009 
-7.1513 -27.1963 
-4.8158 -29.1629 
-4.4543 -31.0943 
-6.4417 -27.3047 
-5.7197 -27.4286 
-4.3504 -29.1704 
-4.0148 -31.0082 
-5.0803 -27.4995 
-3.9195 -29.1661 
-3.6099 -30.9282 
-8.3463 -26.3167 
-7.9476 -26.2518 
-4.5763 -27.4987 
-7.5625 -26.1627 
-7.1190 -26.0807 
-3.5158 -29.1564 
-6.6131 -26.0088 
-4.1492 -27.4734 
-3.2411 -30.8472 
-6.0570 -25.9429 
-5.4577 -25.8797 
-3.1464 -29.1445 
-3.7419 -27.4542 
-4.7051 -25.8369 
-2.9075 -30.7662 
-4.3462 -25.7986 
-3.3719 -27.4485 
-2.8224 -29.1326 
-4.0234 -25.7634 
-2.5853 -30.7066 
-3.0446 -27.4561 
-2.5275 -29.1184 
-3.6929 -25.7311 
-7.4196 -24.7711 
-2.2635 -30.6729 
-7.0133 -24.6950 
-2.7352 -27.4611 
-6.5706 -24.6217 
-3.3508 -25.7019 
-6.1014 -24.5408 
-5.5988 -24.4544 
-2.2385 -29.0984 
-5.0523 -24.3622 
-3.0192 -25.6767 
-1.9390 -30.6600 
-2.4539 -27.4468 
-4.4247 -24.2801 
-1.9433 -29.0724 
-4.1248 -24.2457 
-2.7079 -25.6510 
-2.2086 -27.3998 
-3.8449 -24.2164 
-1.6005 -30.6628 
-3.5605 -24.1877 
-1.6291 -29.0452 
-2.4122 -25.6052 
-1.9613 -27.3271 
-3.2587 -24.1582 
-1.2412 -30.6735 
-2.1943 -25.4947 
-1.2880 -29.0240 
-2.9402 -24.1277 
-1.6788 -27.2503 
-2.2065 -25.2254 
-0.8595 -30.6843 
-6.6570 -23.1876 
-2.6208 -24.0948 
-6.2491 -23.1339 
-5.8049 -23.0772 
-5.3216 -23.0193 
-0.9169 -29.0137 
-4.7983 -22.9564 
-4.2641 -22.9038 
-2.4895 -23.9210 
-1.3588 -27.1791 
-2.2462 -24.9143 
-3.9758 -22.8789 
-0.4592 -30.6880 
-3.7047 -22.8537 
-2.4203 -23.6635 
-0.5160 -29.0162 
-3.4342 -22.8260 
-1.0091 -27.1132 
-2.0588 -24.7351 
-3.1587 -22.7967 
-2.2700 -23.4386 
-0.0561 -30.6883 
-0.0905 -29.0278 
-2.8835 -22.7684 
-0.6272 -27.0550 
-1.7097 -24.6549 
-2.0658 -23.2361 
-2.6107 -22.7425 
0.3426 -30.6815 
-1.2981 -24.6119 
-2.4257 -22.6181 
-1.8867 -22.9881 
0.3601 -29.0496 
-0.2189 -27.0012 
-2.4055 -22.2722 
0.7776 -30.6852 
-6.1518 -21.6534 
-5.7415 -21.6233 
-5.2910 -21.5929 
-1.7501 -22.6819 
-0.8486 -24.5835 
-4.8067 -21.5619 
-4.2933 -21.5418 
0.8337 -29.0719 
0.2026 -26.9470 
-2.2893 -21.9692 
-3.9590 -21.5260 
-3.6390 -21.5053 
-1.6252 -22.3415 
1.2806 -30.7076 
-2.1517 -21.6639 
-3.3305 -21.4796 
-0.3713 -24.5594 
-3.0317 -21.4504 
0.6581 -26.9126 
1.3258 -29.0850 
-1.9914 -21.3791 
-1.5533 -21.9878 
-2.7476 -21.4199 
0.1072 -24.5264 
1.7505 -30.7149 
-2.4763 -21.3861 
-1.7239 -21.1786 
1.1640 -26.9082 
1.8188 -29.0852 
-2.2766 -21.2131 
-1.3167 -21.7929 
0.5659 -24.4690 
-2.2783 -20.6391 
-1.4090 -20.9494 
2.2124 -30.7236 
1.6889 -26.9152 
-0.7884 -21.7775 
-2.1537 -20.1505 
2.2788 -29.0487 
-1.1244 -20.6819 
1.0144 -24.3927 
-2.0462 -19.6466 
-5.9326 -20.0241 
2.6723 -30.7328 
-5.4867 -20.0138 
-0.2254 -21.7882 
-5.0178 -20.0042 
-4.5280 -20.0034 
2.2141 -26.9208 
-4.1055 -19.9932 
-0.8766 -20.4023 
2.7381 -28.9911 
-1.8851 -19.1842 
-3.7002 -19.9742 
1.4844 -24.3217 
-3.3106 -19.9493 
-1.6589 -18.6982 
0.3144 -21.7985 
-2.9410 -19.9204 
-0.6314 -20.1120 
3.1319 -30.7343 
-2.5930 -19.8882 
2.7595 -26.9301 
3.2081 -28.9342 
-1.5420 -18.0411 
-2.2663 -19.8493 
1.9762 -24.2658 
0.8512 -21.8073 
-0.2760 -19.9164 
-2.0172 -19.5896 
-1.2635 -17.6964 
3.5964 -30.7320 
-1.9421 -18.8737 
3.3111 -26.9408 
3.6706 -28.8765 
2.4640 -24.2190 
-1.7813 -18.2790 
0.1406 -19.8219 
1.3836 -21.8093 
-0.8473 -17.6027 
-1.6511 -17.6682 
4.0702 -30.7299 
3.8469 -26.9447 
-0.4527 -17.5647 
0.5448 -19.7691 
4.1191 -28.8227 
-1.4488 -17.0702 
2.9448 -24.1833 
1.8933 -21.8008 
-1.3003 -16.3210 
-0.0941 -17.5599 
4.5431 -30.7224 
-5.8515 -18.1366 
4.3279 -26.9236 
0.9554 -19.7308 
-5.3493 -18.1267 
-4.8738 -18.1195 
-4.3966 -18.1122 
-1.1817 -15.6916 
4.5767 -28.7908 
-3.8886 -18.0940 
2.3706 -21.7814 
3.4304 -24.1638 
-3.3901 -18.0715 
0.2435 -17.5805 
-2.9136 -18.0429 
-0.9049 -15.6119 
-2.4645 -18.0075 
1.4188 -19.7035 
4.6853 -26.8485 
-2.0493 -17.9647 
5.0172 -30.7139 
2.8166 -21.7549 
5.0313 -28.7743 
-1.7052 -17.7266 
0.5756 -17.6204 
3.9461 -24.1658 
-0.6265 -15.5828 
-1.5471 -17.0535 
1.8854 -19.6927 
-0.3682 -15.5752 
-1.3073 -16.5088 
0.9171 -17.6711 
5.0689 -26.7668 
5.4913 -30.7097 
3.2432 -21.7292 
4.4957 -24.1875 
-1.1132 -15.8985 
5.4899 -28.7631 
-0.1246 -15.5871 
2.3259 -19.6914 
-0.9678 -15.2143 
1.2605 -17.7269 
3.6648 -21.7118 
-0.9459 -14.5087 
5.5032 -26.7001 
0.1189 -15.6162 
5.9676 -30.7109 
5.0482 -24.2220 
2.7350 -19.6939 
5.9603 -28.7523 
-0.8035 -14.3384 
1.5976 -17.7854 
0.3761 -15.6573 
-0.6389 -14.2971 
4.0910 -21.7073 
5.9528 -26.6574 
-5.6198 -15.9503 
6.4501 -30.7151 
-5.0838 -15.9187 
3.1194 -19.6976 
-4.5824 -15.8853 
5.4610 -24.2501 
1.9569 -17.8364 
-4.0992 -15.8600 
6.4412 -28.7427 
-3.5712 -15.8319 
0.6599 -15.7016 
-0.4747 -14.2751 
-3.0261 -15.8041 
-2.4712 -15.7758 
4.5262 -21.7180 
-1.9107 -15.7458 
-0.3162 -14.2632 
0.9794 -15.7425 
6.4073 -26.6369 
2.3163 -17.8950 
-1.4280 -15.6093 
3.4881 -19.7030 
6.9397 -30.7192 
5.8253 -24.2701 
-1.2201 -15.0851 
-0.1581 -14.2599 
6.9294 -28.7372 
-1.0140 -14.5514 
1.3354 -15.7839 
4.9725 -21.7444 
2.6563 -17.9590 
-0.8451 -14.0189 
3.8426 -19.7107 
0.0072 -14.2630 
6.8804 -26.6275 
6.2467 -24.2787 
-0.6947 -13.6138 
7.4336 -30.7225 
1.7152 -15.8346 
7.4254 -28.7350 
0.1875 -14.2690 
-0.5645 -13.4692 
2.9695 -18.0152 
5.4170 -21.7869 
4.1810 -19.7213 
-0.4523 -13.4280 
0.3985 -14.2739 
7.3736 -26.6262 
2.0417 -15.9468 
6.6988 -24.2948 
7.9295 -30.7244 
-0.3531 -13.4075 
7.9280 -28.7346 
3.2654 -18.0591 
-0.2609 -13.3911 
5.8500 -21.8679 
0.6493 -14.2779 
4.5180 -19.7375 
2.2822 -16.1717 
7.8874 -26.6302 
-0.1599 -13.3742 
7.1792 -24.3162 
3.5622 -18.0965 
-5.0935 -13.8133 
8.4243 -30.7245 
0.9333 -14.2837 
-4.6153 -13.7628 
-4.1476 -13.7184 
-3.6612 -13.6686 
8.4341 -28.7341 
-3.1706 -13.6246 
-0.0501 -13.3574 
4.8629 -19.7608 
2.4894 -16.4547 
-2.6753 -13.5836 
6.2857 -21.9297 
-2.1809 -13.5413 
1.2365 -14.2935 
-1.7204 -13.4789 
0.0538 -13.3415 
8.4234 -26.6358 
-1.3433 -13.3559 
3.8640 -18.1313 
7.6947 -24.3403 
-1.0310 -13.2050 
2.7106 -16.6627 
0.1485 -13.3250 
5.2133 -19.7936 
1.5685 -14.3099 
6.7554 -21.9820 
-0.7694 -13.0568 
-0.5576 -12.9210 
4.1668 -18.1636 
0.2476 -13.3037 
8.2510 -24.3658 
-0.3954 -12.8103 
2.9535 -16.7405 
1.7877 -14.4575 
-0.2630 -12.7416 
5.6996 -19.8658 
7.2523 -22.0311 
0.3585 -13.2805 
-0.1460 -12.7032 
4.4692 -18.1945 
1.8821 -14.7998 
3.2200 -16.7807 
0.4938 -13.2713 
-0.0434 -12.6780 
6.1554 -19.9299 
7.7822 -22.0810 
0.0584 -12.6578 
2.0635 -15.1147 
0.6560 -13.2839 
4.7557 -18.2235 
3.5013 -16.8159 
0.1614 -12.6396 
0.8225 -13.3098 
6.6100 -19.9905 
2.2786 -15.4368 
0.2585 -12.6219 
-4.4028 -12.1114 
-4.0368 -12.0559 
3.7915 -16.8499 
-3.6807 -12.0007 
-3.2032 -11.9700 
5.1305 -18.2637 
-2.7651 -11.9387 
-2.3570 -11.9123 
0.3398 -12.6036 
0.9925 -13.3430 
-1.9576 -11.8930 
2.5159 -15.4944 
-1.5697 -11.8803 
7.0664 -20.0524 
0.3775 -12.5740 
-1.2140 -11.8703 
4.0887 -16.8829 
-0.9039 -11.8574 
5.5439 -18.3136 
1.1769 -13.3839 
-0.6356 -11.8443 
0.3107 -12.4956 
2.7958 -15.5288 
-0.4074 -11.8339 
-0.2181 -11.8274 
4.3765 -16.9148 
1.3626 -13.4691 
0.1681 -12.3695 
5.9445 -18.3647 
-0.0576 -11.8244 
3.0979 -15.5630 
0.1956 -12.3183 
0.0880 -11.8235 
1.5423 -13.6709 
4.6485 -16.9424 
0.2227 -11.8220 
0.3212 -12.3125 
6.3246 -18.4191 
3.4014 -15.5954 
0.3445 -11.8175 
1.7709 -13.8822 
0.4720 -11.8065 
0.4574 -12.3110 
5.0364 -16.9750 
3.7065 -15.6267 
2.0105 -14.1423 
0.6194 -11.7859 
0.5908 -12.3095 
0.7657 -11.7540 
-3.7921 -10.8177 
-3.4635 -10.7763 
5.4008 -17.0112 
-3.1024 -10.7377 
-2.7289 -10.7013 
-2.3833 -10.6726 
4.0133 -15.6562 
2.3383 -14.1817 
-2.0581 -10.6500 
0.7380 -12.3207 
0.7246 -11.6593 
-1.7328 -10.6340 
-1.4130 -10.6266 
-1.1054 -10.6279 
0.3010 -11.4382 
5.7405 -17.0506 
0.8782 -12.3553 
-0.8156 -10.6367 
2.6728 -14.2178 
4.3078 -15.6820 
-0.5483 -10.6494 
-0.1456 -11.2502 
-0.3023 -10.6634 
1.0188 -12.4264 
-0.0794 -10.6792 
3.0058 -14.2507 
-0.2485 -11.1944 
4.6604 -15.7025 
0.1167 -10.6960 
1.2060 -12.5426 
0.3003 -10.7074 
-0.0348 -11.2279 
3.3380 -14.2811 
0.4880 -10.7081 
5.0029 -15.7289 
0.6846 -10.6967 
1.4969 -12.6684 
0.1742 -11.2517 
3.6735 -14.3097 
0.8931 -10.6715 
0.3450 -11.2604 
1.8837 -12.7282 
5.3356 -15.7571 
1.0764 -10.6320 
0.8426 -10.5234 
0.4612 -11.2504 
4.0000 -14.3359 
2.2575 -12.7659 
0.5899 -10.4328 
-3.3536 -9.5355 
-3.0295 -9.5042 
-2.6951 -9.4761 
-2.3705 -9.4579 
-2.0744 -9.4344 
0.5752 -11.2354 
-1.7665 -9.4101 
-1.4641 -9.3884 
4.3314 -14.3591 
0.3949 -10.3735 
-1.1702 -9.3717 
2.6198 -12.7994 
-0.8856 -9.3596 
0.7395 -11.2356 
-0.6111 -9.3511 
0.1689 -10.2781 
-0.3479 -9.3459 
4.6759 -14.3844 
2.9726 -12.8306 
-0.1044 -9.3457 
-0.1395 -10.1429 
0.9574 -11.2522 
0.1246 -9.3477 
0.3587 -9.3447 
-0.3921 -10.0419 
5.0237 -14.4099 
3.3244 -12.8607 
1.2329 -11.2759 
0.6121 -9.3312 
-0.2061 -10.0554 
0.8860 -9.3053 
1.5648 -11.3031 
1.1236 -9.2701 
3.6681 -12.8900 
0.0075 -10.0769 
1.0055 -9.2146 
1.9196 -11.3327 
0.8041 -9.1705 
0.2172 -10.0909 
3.9887 -12.9166 
0.7023 -9.1557 
0.4190 -10.0878 
2.2728 -11.3636 
0.5702 -9.1177 
4.3412 -12.9457 
-2.9437 -8.2239 
-2.6078 -8.1790 
-2.3221 -8.1421 
0.6071 -10.0646 
-2.0297 -8.1078 
0.4178 -9.0576 
-1.7332 -8.0792 
-1.4357 -8.0544 
2.6198 -11.3948 
-1.1448 -8.0328 
-0.8589 -8.0133 
0.2694 -8.9954 
4.6978 -12.9753 
-0.5776 -7.9949 
0.8138 -10.0374 
-0.3016 -7.9769 
2.9638 -11.4257 
0.1345 -8.9246 
-0.0382 -7.9594 
0.2205 -7.9402 
1.0676 -10.0242 
0.0074 -8.8240 
0.4913 -7.9148 
0.7593 -7.8835 
3.3055 -11.4575 
1.3513 -10.0237 
-0.1986 -8.7018 
0.9316 -7.8484 
0.8404 -7.8051 
-0.3827 -8.6207 
3.6371 -11.4911 
0.7624 -7.7944 
1.6530 -10.0327 
0.7325 -7.8016 
-0.2010 -8.6250 
3.9701 -11.5247 
1.9661 -10.0497 
0.6771 -7.7906 
0.0745 -8.6500 
0.5871 -7.7601 
2.2855 -10.0725 
0.5009 -7.7295 
4.3111 -11.5585 
0.3362 -8.6715 
0.4119 -7.6957 
-2.3938 -6.7265 
2.6076 -10.0996 
-2.0977 -6.7098 
-1.8642 -6.6993 
0.5681 -8.6837 
-1.6309 -6.6884 
-1.3644 -6.6710 
0.3193 -7.6531 
-1.0828 -6.6511 
-0.7984 -6.6306 
-0.5133 -6.6090 
-0.2282 -6.5863 
0.2275 -7.6049 
0.8109 -8.6947 
2.9276 -10.1289 
0.0570 -6.5626 
0.3446 -6.5364 
0.1356 -7.5584 
0.6269 -6.5066 
1.0813 -8.7091 
0.7397 -6.4678 
3.2355 -10.1595 
0.0636 -7.5070 
0.6817 -6.4281 
1.3628 -8.7249 
0.6638 -6.4211 
0.0193 -7.4303 
0.6654 -6.4235 
3.5692 -10.1936 
0.6355 -6.4098 
1.6524 -8.7433 
-0.0440 -7.3402 
0.5891 -6.3889 
3.8966 -10.2275 
-0.1062 -7.2793 
0.5426 -6.3721 
1.9487 -8.7655 
0.4923 -6.3560 
-0.0788 -7.2640 
0.4325 -6.3340 
2.2519 -8.7920 
0.1648 -7.2904 
0.3696 -6.3076 
2.5578 -8.8215 
0.3057 -6.2782 
-2.2020 -5.3629 
-1.8720 -5.3502 
0.4485 -7.3206 
-1.5794 -5.3347 
-1.3015 -5.3147 
-1.0179 -5.2907 
-0.7299 -5.2648 
0.2417 -6.2450 
-0.4400 -5.2381 
-0.1506 -5.2115 
2.8438 -8.8507 
0.1360 -5.1854 
0.7354 -7.3478 
0.1823 -6.2062 
0.4230 -5.1595 
0.6953 -5.1334 
0.6498 -5.0859 
1.0196 -7.3731 
3.1559 -8.8804 
0.1282 -6.1646 
0.6251 -5.0671 
0.6182 -5.0577 
0.0757 -6.1287 
1.3031 -7.3976 
0.5899 -5.0401 
3.4890 -8.9160 
0.5569 -5.0238 
0.0293 -6.0965 
0.5264 -5.0141 
1.5871 -7.4223 
-0.0083 -6.0563 
0.4911 -5.0051 
0.4498 -4.9928 
1.8717 -7.4484 
-0.0408 -6.0097 
0.4056 -4.9781 
0.3602 -4.9617 
-0.1248 -5.9756 
2.1588 -7.4768 
0.3124 -4.9427 
0.0974 -5.9895 
0.2630 -4.9206 
2.4366 -7.5074 
-2.0341 -3.9247 
0.3714 -6.0147 
0.2132 -4.8958 
-1.6694 -3.9037 
-1.3279 -3.8825 
-1.0007 -3.8594 
-0.6844 -3.8349 
-0.3744 -3.8102 
2.6955 -7.5401 
-0.0703 -3.7856 
0.1625 -4.8694 
0.2264 -3.7610 
0.5233 -3.7350 
0.6562 -6.0424 
0.7996 -3.7070 
0.1107 -4.8418 
0.6856 -3.6736 
2.9795 -7.5808 
0.6401 -3.6705 
0.9378 -6.0698 
0.5900 -3.6649 
0.0596 -4.8119 
0.5428 -3.6618 
0.5036 -3.6638 
0.0103 -4.7810 
1.2175 -6.0963 
0.4655 -3.6654 
0.4275 -3.6645 
-0.0378 -4.7536 
1.4942 -6.1217 
0.3915 -3.6619 
-0.0871 -4.7310 
0.3562 -3.6575 
1.7649 -6.1463 
0.3203 -3.6505 
-0.1179 -4.7061 
0.2834 -3.6401 
2.0182 -6.1683 
-0.2293 -4.6865 
0.2457 -3.6265 
0.2066 -3.6098 
0.0136 -4.7083 
2.2438 -6.1847 
0.1656 -3.5899 
-1.6874 -2.3716 
-1.3245 -2.3380 
0.2856 -4.7352 
-0.9842 -2.3049 
-0.6613 -2.2776 
2.5125 -6.2033 
-0.3441 -2.2560 
0.1225 -3.5667 
-0.0236 -2.2359 
0.2975 -2.2155 
0.6233 -2.1916 
0.9096 -2.1680 
0.0771 -3.5406 
0.5686 -4.7642 
0.6865 -2.1961 
0.6009 -2.2443 
0.0287 -3.5123 
0.5191 -2.2787 
0.8514 -4.7939 
0.4576 -2.3100 
-0.0240 -3.4825 
0.4078 -2.3358 
0.3659 -2.3553 
1.1336 -4.8242 
-0.0812 -3.4512 
0.3311 -2.3704 
0.3009 -2.3813 
-0.1423 -3.4196 
1.4140 -4.8540 
0.2733 -2.3880 
0.2474 -2.3907 
-0.2136 -3.3924 
1.6921 -4.8820 
0.2225 -2.3895 
0.1979 -2.3847 
-0.2686 -3.3660 
1.9744 -4.9060 
0.1727 -2.3762 
-0.3560 -3.3525 
0.1465 -2.3638 
2.2838 -4.9247 
-0.0863 -3.3775 
0.1187 -2.3474 
0.0886 -2.3268 
-1.0527 -0.9634 
-0.7527 -0.8814 
0.1962 -3.4034 
-0.5152 -0.8256 
-0.2989 -0.7894 
-0.0709 -0.7701 
0.1939 -0.7665 
0.0552 -2.3020 
0.4864 -0.7691 
0.7402 -0.7796 
0.4678 -0.8911 
0.4829 -3.4301 
0.3915 -0.9802 
0.0175 -2.2724 
0.3167 -1.0371 
0.2677 -1.0816 
-0.0257 -2.2375 
0.2308 -1.1142 
0.7745 -3.4575 
0.2030 -1.1387 
-0.0761 -2.1973 
0.1815 -1.1571 
1.0730 -3.4856 
0.1639 -1.1705 
-0.1369 -2.1512 
0.1491 -1.1799 
0.1363 -1.1862 
1.3818 -3.5135 
-0.2094 -2.0980 
0.1247 -1.1895 
0.1137 -1.1903 
1.7053 -3.5400 
-0.3063 -2.0402 
0.1029 -1.1887 
-0.4322 -1.9754 
0.0920 -1.1846 
2.0481 -3.5665 
0.0806 -1.1780 
-0.4698 -1.9372 
0.0684 -1.1689 
-0.1828 -1.9613 
0.0549 -1.1568 
0.0000 -0.0000 
0.0396 -1.1414 
0.0000 0.0000 
0.0000 -0.0000 
-0.0000 0.0000 
0.1088 -1.9849 
0.0000 0.0000 
0.0000 -0.0000 
-0.0000 0.0000 
0.0000 -0.0000 
0.0219 -1.1222 
0.0000 0.0000 
0.4016 -2.0093 
0.0000 -0.0000 
-0.0000 0.0000 
0.0009 -1.0982 
0.0000 -0.0000 
0.0000 -0.0000 
0.6958 -2.0351 
-0.0247 -1.0685 
-0.0000 0.0000 
-0.0000 -0.0000 
-0.0565 -1.0314 
0.0000 -0.0000 
0.9960 -2.0652 
-0.0000 0.0000 
-0.0976 -0.9849 
0.0000 -0.0000 
1.3102 -2.1008 
-0.0000 -0.0000 
-0.1492 -0.9248 
-0.0000 -0.0000 
1.6424 -2.1376 
-0.0000 -0.0000 
-0.2142 -0.8465 
0.0000 -0.0000 
-0.3348 -0.7414 
-0.0000 0.0000 
0.0000 -0.0000 
-0.4188 -0.6504 
-0.0000 0.0000 
-0.1612 -0.6561 
0.0000 -0.0000 
0.0825 -0.6652 
0.0000 -0.0000 
0.0000 -0.0000 
0.3037 -0.6878 
0.0000 0.0000 
0.5073 -0.7260 
-0.0000 0.0000 
0.7257 -0.7822 
0.0000 0.0000 
-0.0000 -0.0000 
0.9970 -0.8620 
0.0000 0.0000 
-0.0000 0.0000 
0.0000 -0.0000 
-0.0000 -0.0000 
-0.0000 0.0000 
-0.0000 -0.0000 
0.0000 -0.0000 
-0.0000 0.0000 
0.0000 -0.0000 </DataArray>
         </PointData>
         <CellData>
            <DataArray Name="alpha" NumberOfComponents="2" format="ascii" type="Float64">
1.0000 0.0000 
1.0000 0.0000 
1.0000 0.0000 
1.0000 0.0000 
1.0000 0.0000 
1.0000 0.0000 
1.0000 0.0000 
1.0000 0.0000 
1.0000 0.0000 
1.0000 0.0000 
1.0000 0.0000 
1.0000 0.0000 
1.0000 0.0000 
1.0000 0.0000 
1.0000 0.0000 
1.0000 0.0000 
1.0000 0.0000 
1.0000 0.0000 
1.0000 0.0000 
1.0000 0.0000 
1.0000 0.0000 
1.0000 0.0000 
1.0000 0.0000 
1.0000 0.0000 
1.0000 0.0000 
1.0000 0.0000 
1.0000 0.0000 
1.0000 0.0000 
1.0000 0.0000 
1.0000 0.0000 
1.0000 0.0000 
1.0000 0.0000 
1.0000 0.0000 
1.0000 0.0000 
1.0000 0.0000 
1.0000 0.0000 
1.0000 0.0000 
1.0000 0.0000 
1.0000 0.0000 
1.0000 0.0000 
1.0000 0.0000 
1.0000 0.0000 
1.0000 0.0000 
1.0000 0.0000 
1.0000 0.0000 
1.0000 0.0000 
1.0000 0.0000 
1.0000 0.0000 
1.0000 0.0000 
1.0000 0.0000 
1.0000 0.0000 
1.0000 0.0000 
1.0000 0.0000 
1.0000 0.0000 
1.0000 0.0000 
1.0000 0.0000 
1.0000 0.0000 
1.0000 0.0000 
1.0000 0.0000 
1.0000 0.0000 
1.0000 0.0000 
1.0000 0.0000 
1.0000 0.0000 
1.0000 0.0000 
1.0000 0.0000 
1.0000 0.0000 
1.0000 0.0000 
1.0000 0.0000 
1.0000 0.0000 
1.0000 0.0000 
1.0000 0.0000 
1.0000 0.0000 
1.0000 0.0000 
1.0000 0.0000 
1.0000 0.0000 
1.0000 0.0000 
1.0000 0.0000 
1.0000 0.0000 
1.0000 0.0000 
1.0000 0.0000 
1.0000 0.0000 
1.0000 0.0000 
1.0000 0.0000 
1.0000 0.0000 
1.0000 0.0000 
1.0000 0.0000 
1.0000 0.0000 
1.0000 0.0000 
1.0000 0.0000 
1.0000 0.0000 
1.0000 0.0000 
1.0000 0.0000 
1.0000 0.0000 
1.0000 0.0000 
1.0000 0.0000 
1.0000 0.0000 
1.0000 0.0000 
1.0000 0.0000 
1.0000 0.0000 
1.0000 0.0000 
1.0000 0.0000 
1.0000 0.0000 
1.0000 0.0000 
1.0000 0.0000 
1.0000 0.0000 
1.0000 0.0000 
1.0000 0.0000 
1.0000 0.0000 
1.0000 0.0000 
1.0000 0.0000 
1.0000 0.0000 
1.0000 0.0000 
1.0000 0.0000 
1.0000 0.0000 
1.0000 0.0000 
1.0000 0.0000 
1.0000 0.0000 
1.0000 0.0000 
1.0000 0.0000 
1.0000 0.0000 
1.0000 0.0000 
1.0000 0.0000 
1.0000 0.0000 
1.0000 0.0000 
1.0000 0.0000 
1.0000 0.0000 
1.0000 0.0000 
1.0000 0.0000 
1.0000 0.0000 
1.0000 0.0000 
1.0000 0.0000 
1.0000 0.0000 
1.0000 0.0000 
1.0000 0.0000 
1.0000 0.0000 
1.0000 0.0000 
1.0000 0.0000 
1.0000 0.0000 
1.0000 0.0000 
1.0000 0.0000 
1.0000 0.0000 
1.0000 0.0000 
1.0000 0.0000 
1.0000 0.0000 
1.0000 0.0000 
1.0000 0.0000 
1.0000 0.0000 
1.0000 0.0000 
1.0000 0.0000 
1.0000 0.0000 
1.0000 0.0000 
1.0000 0.0000 
1.0000 0.0000 
1.0000 0.0000 
1.0000 0.0000 
1.0000 0.0000 
1.0000 0.0000 
1.0000 0.0000 
1.0000 0.0000 
1.0000 0.0000 
1.0000 0.0000 
1.0000 0.0000 
1.0000 0.0000 
1.0000 0.0000 
1.0000 0.0000 
1.0000 0.0000 
1.0000 0.0000 
1.0000 0.0000 
1.0000 0.0000 
1.0000 0.0000 
1.0000 0.0000 
1.0000 0.0000 
1.0000 0.0000 
1.0000 0.0000 
1.0000 0.0000 
1.0000 0.0000 
1.0000 0.0000 
1.0000 0.0000 
1.0000 0.0000 
1.0000 0.0000 
1.0000 0.0000 
1.0000 0.0000 
1.0000 0.0000 
1.0000 0.0000 
1.0000 0.0000 
1.0000 0.0000 
1.0000 0.0000 
1.0000 0.0000 
1.0000 0.0000 
1.0000 0.0000 
1.0000 0.0000 
1.0000 0.0000 
1.0000 0.0000 
1.0000 0.0000 
1.0000 0.0000 
1.0000 0.0000 
1.0000 0.0000 
1.0000 0.0000 
1.0000 0.0000 
1.0000 0.0000 
1.0000 0.0000 
1.0000 0.0000 
1.0000 0.0000 
1.0000 0.0000 
1.0000 0.0000 
1.0000 0.0000 
1.0000 0.0000 
1.0000 0.0000 
1.0000 0.0000 
1.0000 0.0000 
1.0000 0.0000 
1.0000 0.0000 
1.0000 0.0000 
1.0000 0.0000 
1.0000 0.0000 
1.0000 0.0000 
1.0000 0.0000 
1.0000 0.0000 
1.0000 0.0000 
1.0000 0.0000 
1.0000 0.0000 
1.0000 0.0000 
1.0000 0.0000 
1.0000 0.0000 
1.0000 0.0000 
1.0000 0.0000 
1.0000 0.0000 
1.0000 0.0000 
1.0000 0.0000 
1.0000 0.0000 
1.0000 0.0000 
1.0000 0.0000 
1.0000 0.0000 
1.0000 0.0000 
1.0000 0.0000 
1.0000 0.0000 
1.0000 0.0000 
1.0000 0.0000 
1.0000 0.0000 
1.0000 0.0000 
1.0000 0.0000 
1.0000 0.0000 
1.0000 0.0000 
1.0000 0.0000 
1.0000 0.0000 
1.0000 0.0000 
1.0000 0.0000 
1.0000 0.0000 
1.0000 0.0000 
1.0000 0.0000 
1.0000 0.0000 
1.0000 0.0000 
1.0000 0.0000 
1.0000 0.0000 
1.0000 0.0000 
1.0000 0.0000 
1.0000 0.0000 
1.0000 0.0000 
1.0000 0.0000 
1.0000 0.0000 
1.0000 0.0000 
1.0000 0.0000 
1.0000 0.0000 
1.0000 0.0000 
1.0000 0.0000 
1.0000 0.0000 
1.0000 0.0000 
1.0000 0.0000 
1.0000 0.0000 
1.0000 0.0000 
1.0000 0.0000 
1.0000 0.0000 
1.0000 0.0000 
1.0000 0.0000 
1.0000 0.0000 
1.0000 0.0000 
1.0000 0.0000 
1.0000 0.0000 
1.0000 0.0000 
1.0000 0.0000 
1.0000 0.0000 
1.0000 0.0000 
1.0000 0.0000 
1.0000 0.0000 
1.0000 0.0000 
1.0000 0.0000 
1.0000 0.0000 
1.0000 0.0000 
1.0000 0.0000 
1.0000 0.0000 
1.0000 0.0000 
1.0000 0.0000 
1.0000 0.0000 
1.0000 0.0000 
1.0000 0.0000 
1.0000 0.0000 
1.0000 0.0000 
1.0000 0.0000 
1.0000 0.0000 
1.0000 0.0000 
1.0000 0.0000 
1.0000 0.0000 
1.0000 0.0000 
1.0000 0.0000 
1.0000 0.0000 
1.0000 0.0000 
1.0000 0.0000 
1.0000 0.0000 
1.0000 0.0000 
1.0000 0.0000 
1.0000 0.0000 
1.0000 0.0000 
1.0000 0.0000 
1.0000 0.0000 
1.0000 0.0000 
1.0000 0.0000 
1.0000 0.0000 
1.0000 0.0000 
1.0000 0.0000 
1.0000 0.0000 
1.0000 0.0000 
1.0000 0.0000 
1.0000 0.0000 
1.0000 0.0000 
1.0000 0.0000 
1.0000 0.0000 
1.0000 0.0000 
1.0000 0.0000 
1.0000 0.0000 
1.0000 0.0000 
1.0000 0.0000 
1.0000 0.0000 
1.0000 0.0000 
1.0000 0.0000 
1.0000 0.0000 
1.0000 0.0000 
1.0000 0.0000 
1.0000 0.0000 
1.0000 0.0000 
1.0000 0.0000 
1.0000 0.0000 
1.0000 0.0000 
1.0000 0.0000 
1.0000 0.0000 
1.0000 0.0000 
1.0000 0.0000 
1.0000 0.0000 
1.0000 0.0000 
1.0000 0.0000 
1.0000 0.0000 
1.0000 0.0000 
1.0000 0.0000 
1.0000 0.0000 
1.0000 0.0000 
1.0000 0.0000 
1.0000 0.0000 
1.0000 0.0000 
1.0000 0.0000 
1.0000 0.0000 
1.0000 0.0000 
1.0000 0.0000 
1.0000 0.0000 
1.0000 0.0000 
1.0000 0.0000 
1.0000 0.0000 
1.0000 0.0000 
1.0000 0.0000 
1.0000 0.0000 
1.0000 0.0000 
1.0000 0.0000 
1.0000 0.0000 
1.0000 0.0000 
1.0000 0.0000 
1.0000 0.0000 
1.0000 0.0000 
1.0000 0.0000 
1.0000 0.0000 
1.0000 0.0000 
1.0000 0.0000 
1.0000 0.0000 
1.0000 0.0000 
1.0000 0.0000 
1.0000 0.0000 
1.0000 0.0000 
1.0000 0.0000 
1.0000 0.0000 
1.0000 0.0000 
1.0000 0.0000 
1.0000 0.0000 
1.0000 0.0000 
1.0000 0.0000 
1.0000 0.0000 
1.0000 0.0000 
1.0000 0.0000 
1.0000 0.0000 
1.0000 0.0000 
1.0000 0.0000 
1.0000 0.0000 
1.0000 0.0000 
1.0000 0.0000 
1.0000 0.0000 
1.0000 0.0000 
1.0000 0.0000 
1.0000 0.0000 
1.0000 0.0000 
1.0000 0.0000 
1.0000 0.0000 
1.0000 0.0000 
1.0000 0.0000 
1.0000 0.0000 
1.0000 0.0000 
1.0000 0.0000 
1.0000 0.0000 
1.0000 0.0000 
1.0000 0.0000 
1.0000 0.0000 
1.0000 0.0000 
1.0000 0.0000 
1.0000 0.0000 
1.0000 0.0000 
1.0000 0.0000 
1.0000 0.0000 
1.0000 0.0000 
1.0000 0.0000 
1.0000 0.0000 
1.0000 0.0000 
1.0000 0.0000 
1.0000 0.0000 
1.0000 0.0000 
1.0000 0.0000 
1.0000 0.0000 
1.0000 0.0000 
1.0000 0.0000 
1.0000 0.0000 
1.0000 0.0000 
1.0000 0.0000 
1.0000 0.0000 
1.0000 0.0000 
1.0000 0.0000 
1.0000 0.0000 
1.0000 0.0000 
1.0000 0.0000 
1.0000 0.0000 
1.0000 0.0000 
1.0000 0.0000 
1.0000 0.0000 
1.0000 0.0000 
1.0000 0.0000 
1.0000 0.0000 
1.0000 0.0000 
1.0000 0.0000 
1.0000 0.0000 
1.0000 0.0000 
1.0000 0.0000 
1.0000 0.0000 
1.0000 0.0000 
1.0000 0.0000 
1.0000 0.0000 
1.0000 0.0000 
1.0000 0.0000 
1.0000 0.0000 
1.0000 0.0000 
1.0000 0.0000 
1.0000 0.0000 
1.0000 0.0000 
1.0000 0.0000 
1.0000 0.0000 
1.0000 0.0000 
1.0000 0.0000 
1.0000 0.0000 
1.0000 0.0000 
1.0000 0.0000 
1.0000 0.0000 
1.0000 0.0000 
1.0000 0.0000 
1.0000 0.0000 
1.0000 0.0000 
1.0000 0.0000 
1.0000 0.0000 
1.0000 0.0000 
1.0000 0.0000 
1.0000 0.0000 
1.0000 0.0000 
1.0000 0.0000 
1.0000 0.0000 
1.0000 0.0000 
1.0000 0.0000 
1.0000 0.0000 
1.0000 0.0000 
1.0000 0.0000 
1.0000 0.0000 
1.0000 0.0000 
1.0000 0.0000 
1.0000 0.0000 
1.0000 0.0000 
1.0000 0.0000 
1.0000 0.0000 
1.0000 0.0000 
1.0000 0.0000 
1.0000 0.0000 
1.0000 0.0000 
1.0000 0.0000 
1.0000 0.0000 
1.0000 0.0000 
1.0000 0.0000 
1.0000 0.0000 
1.0000 0.0000 
1.0000 0.0000 
1.0000 0.0000 
1.0000 0.0000 
1.0000 0.0000 
1.0000 0.0000 
1.0000 0.0000 
1.0000 0.0000 
1.0000 0.0000 
1.0000 0.0000 
1.0000 0.0000 
1.0000 0.0000 
1.0000 0.0000 
1.0000 0.0000 
1.0000 0.0000 
1.0000 0.0000 
1.0000 0.0000 
1.0000 0.0000 
1.0000 0.0000 
1.0000 0.0000 
1.0000 0.0000 
1.0000 0.0000 
1.0000 0.0000 
1.0000 0.0000 
1.0000 0.0000 
1.0000 0.0000 
1.0000 0.0000 
1.0000 0.0000 
1.0000 0.0000 
1.0000 0.0000 
1.0000 0.0000 
1.0000 0.0000 
1.0000 0.0000 
1.0000 0.0000 
1.0000 0.0000 
1.0000 0.0000 
1.0000 0.0000 
1.0000 0.0000 
1.0000 0.0000 
1.0000 0.0000 
1.0000 0.0000 
1.0000 0.0000 
1.0000 0.0000 
1.0000 0.0000 
1.0000 0.0000 
1.0000 0.0000 
1.0000 0.0000 
1.0000 0.0000 
1.0000 0.0000 
1.0000 0.0000 
1.0000 0.0000 
1.0000 0.0000 
1.0000 0.0000 
1.0000 0.0000 
1.0000 0.0000 
1.0000 0.0000 
1.0000 0.0000 
1.0000 0.0000 
1.0000 0.0000 
1.0000 0.0000 
1.0000 0.0000 
1.0000 0.0000 
1.0000 0.0000 
1.0000 0.0000 
1.0000 0.0000 
1.0000 0.0000 
1.0000 0.0000 
1.0000 0.0000 
1.0000 0.0000 
1.0000 0.0000 
1.0000 0.0000 
1.0000 0.0000 
1.0000 0.0000 
1.0000 0.0000 
1.0000 0.0000 
1.0000 0.0000 
1.0000 0.0000 
1.0000 0.0000 
1.0000 0.0000 
1.0000 0.0000 
1.0000 0.0000 
1.0000 0.0000 
1.0000 0.0000 
1.0000 0.0000 
1.0000 0.0000 
1.0000 0.0000 
1.0000 0.0000 
1.0000 0.0000 
1.0000 0.0000 
1.0000 0.0000 
1.0000 0.0000 
1.0000 0.0000 
1.0000 0.0000 
1.0000 0.0000 
1.0000 0.0000 
1.0000 0.0000 
1.0000 0.0000 
1.0000 0.0000 
1.0000 0.0000 
1.0000 0.0000 
1.0000 0.0000 
1.0000 0.0000 
1.0000 0.0000 
1.0000 0.0000 
1.0000 0.0000 
1.0000 0.0000 
1.0000 0.0000 
1.0000 0.0000 
1.0000 0.0000 
1.0000 0.0000 
1.0000 0.0000 
1.0000 0.0000 
1.0000 0.0000 
1.0000 0.0000 
1.0000 0.0000 
1.0000 0.0000 
1.0000 0.0000 
1.0000 0.0000 
1.0000 0.0000 
1.0000 0.0000 
1.0000 0.0000 
1.0000 0.0000 
1.0000 0.0000 
1.0000 0.0000 
1.0000 0.0000 
1.0000 0.0000 
1.0000 0.0000 
1.0000 0.0000 
1.0000 0.0000 
1.0000 0.0000 
1.0000 0.0000 
1.0000 0.0000 
1.0000 0.0000 
1.0000 0.0000 
1.0000 0.0000 
1.0000 0.0000 
1.0000 0.0000 
1.0000 0.0000 
1.0000 0.0000 
1.0000 0.0000 
1.0000 0.0000 
1.0000 0.0000 
1.0000 0.0000 
1.0000 0.0000 
1.0000 0.0000 
1.0000 0.0000 
1.0000 0.0000 
1.0000 0.0000 
1.0000 0.0000 
1.0000 0.0000 
1.0000 0.0000 
1.0000 0.0000 
1.0000 0.0000 
1.0000 0.0000 
1.0000 0.0000 
1.0000 0.0000 
1.0000 0.0000 
1.0000 0.0000 
1.0000 0.0000 
1.0000 0.0000 
1.0000 0.0000 
1.0000 0.0000 
1.0000 0.0000 
1.0000 0.0000 
1.0000 0.0000 
1.0000 0.0000 
1.0000 0.0000 
1.0000 0.0000 
1.0000 0.0000 
1.0000 0.0000 
1.0000 0.0000 
1.0000 0.0000 
1.0000 0.0000 
1.0000 0.0000 
1.0000 0.0000 
1.0000 0.0000 
1.0000 0.0000 
1.0000 0.0000 
1.0000 0.0000 
1.0000 0.0000 
1.0000 0.0000 
1.0000 0.0000 
1.0000 0.0000 
1.0000 0.0000 
1.0000 0.0000 
1.0000 0.0000 
1.0000 0.0000 
1.0000 0.0000 
1.0000 0.0000 
1.0000 0.0000 
1.0000 0.0000 
1.0000 0.0000 
1.0000 0.0000 
1.0000 0.0000 
1.0000 0.0000 
1.0000 0.0000 
1.0000 0.0000 
1.0000 0.0000 
1.0000 0.0000 
1.0000 0.0000 
1.0000 0.0000 
1.0000 0.0000 
1.0000 0.0000 
1.0000 0.0000 
1.0000 0.0000 
1.0000 0.0000 
1.0000 0.0000 
1.0000 0.0000 
1.0000 0.0000 
1.0000 0.0000 
1.0000 0.0000 
1.0000 0.0000 
1.0000 0.0000 
1.0000 0.0000 
1.0000 0.0000 
1.0000 0.0000 
1.0000 0.0000 
1.0000 0.0000 
1.0000 0.0000 
1.0000 0.0000 
1.0000 0.0000 
1.0000 0.0000 
1.0000 0.0000 
1.0000 0.0000 
1.0000 0.0000 
1.0000 0.0000 
1.0000 0.0000 
1.0000 0.0000 
1.0000 0.0000 
1.0000 0.0000 
1.0000 0.0000 
1.0000 0.0000 
1.0000 0.0000 
1.0000 0.0000 
1.0000 0.0000 
1.0000 0.0000 
1.0000 0.0000 
1.0000 0.0000 
1.0000 0.0000 
1.0000 0.0000 
1.0000 0.0000 
1.0000 0.0000 
1.0000 0.0000 
1.0000 0.0000 
1.0000 0.0000 
1.0000 0.0000 
1.0000 0.0000 
1.0000 0.0000 
1.0000 0.0000 
1.0000 0.0000 
1.0000 0.0000 
1.0000 0.0000 
1.0000 0.0000 
1.0000 0.0000 
1.0000 0.0000 
1.0000 0.0000 
1.0000 0.0000 
1.0000 0.0000 
1.0000 0.0000 
1.0000 0.0000 
1.0000 0.0000 
1.0000 0.0000 
1.0000 0.0000 
1.0000 0.0000 
1.0000 0.0000 
1.0000 0.0000 
1.0000 0.0000 
1.0000 0.0000 
1.0000 0.0000 
1.0000 0.0000 
1.0000 0.0000 
1.0000 0.0000 
1.0000 0.0000 
1.0000 0.0000 
1.0000 0.0000 
1.0000 0.0000 
1.0000 0.0000 
1.0000 0.0000 
1.0000 0.0000 
1.0000 0.0000 
1.0000 0.0000 
1.0000 0.0000 
1.0000 0.0000 
1.0000 0.0000 
1.0000 0.0000 
1.0000 0.0000 
1.0000 0.0000 
1.0000 0.0000 
1.0000 0.0000 
1.0000 0.0000 
1.0000 0.0000 
1.0000 0.0000 
1.0000 0.0000 
1.0000 0.0000 </DataArray>
         </CellData>
      </Piece>
   </UnstructuredGrid>
</VTKFile>